adsorbate = N_linear.xyz, surface = resources/zigzag.vdW.CONTCAR, shift = [0.0, 0.0, 10.0], in-plane rotation = 0
 1.0000000000000000
    45.0924602317194143    0.0000000000000000    0.0000000000000000
     0.0000000000000000   22.2001828173343476    0.0000000000000000
     0.0000000000000000    0.0000000000000000   20.4043416806197726
   B   C   H   N
 160  41  33 163
Cartesian
  1.4793147700000000 15.3734900400000001 10.2021708400000009
 10.3552034000000006  2.5622486800000002 10.2021708400000009
 13.3138329500000001  2.5622486800000002 10.2021708400000009
 14.7931477200000003  2.5622486800000002 10.2021708400000009
 17.7517772600000008  2.5622486800000002 10.2021708400000009
 19.2310920299999992  2.5622486800000002 10.2021708400000009
 22.1897215800000005  2.5622486800000002 10.2021708400000009
 23.6690373700000016  2.5622486800000002 10.2021708400000009
  8.8758886300000004  2.5622486800000002 10.2021708400000009
 26.6276658899999994  2.5622486800000002 10.2021708400000009
 31.0656112299999982  2.5622486800000002 10.2021708400000009
 32.5449249799999976  2.5622486800000002 10.2021708400000009
 35.5035535000000024  2.5622486800000002 10.2021708400000009
 36.9828692999999973  2.5622486800000002 10.2021708400000009
 39.9415008799999995  2.5622486800000002 10.2021708400000009
 41.4208115699999979  2.5622486800000002 10.2021708400000009
  0.0000000000000000  5.1244963400000003 10.2021708400000009
 28.1069796399999987  2.5622486800000002 10.2021708400000009
  1.4793147700000000  5.1244963400000003 10.2021708400000009
  5.9172590899999999  2.5622486800000002 10.2021708400000009
  1.4793147700000000  2.5622486800000002 10.2021708400000009
 10.3552034000000006  0.0000000000000000 10.2021708400000009
 13.3138329500000001  0.0000000000000000 10.2021708400000009
 14.7931477200000003  0.0000000000000000 10.2021708400000009
 17.7517772600000008  0.0000000000000000 10.2021708400000009
 19.2310920299999992  0.0000000000000000 10.2021708400000009
 22.1897215800000005  0.0000000000000000 10.2021708400000009
 23.6690373700000016  0.0000000000000000 10.2021708400000009
  4.4379443199999997  2.5622486800000002 10.2021708400000009
 26.6276658899999994  0.0000000000000000 10.2021708400000009
 31.0656112299999982  0.0000000000000000 10.2021708400000009
 32.5449249799999976  0.0000000000000000 10.2021708400000009
 35.5035535000000024  0.0000000000000000 10.2021708400000009
 36.9828692999999973  0.0000000000000000 10.2021708400000009
 39.9415008799999995  0.0000000000000000 10.2021708400000009
 41.4208115699999979  0.0000000000000000 10.2021708400000009
  0.0000000000000000  2.5622486800000002 10.2021708400000009
 28.1069796399999987  0.0000000000000000 10.2021708400000009
  8.8758886300000004  0.0000000000000000 10.2021708400000009
  4.4379443199999997  5.1244963400000003 10.2021708400000009
  8.8758886300000004  5.1244963400000003 10.2021708400000009
 10.3552034000000006  7.6867450200000000 10.2021708400000009
 13.3138329500000001  7.6867450200000000 10.2021708400000009
 14.7931477200000003  7.6867450200000000 10.2021708400000009
 17.7517772600000008  7.6867450200000000 10.2021708400000009
 19.2310920299999992  7.6867450200000000 10.2021708400000009
 22.1897215800000005  7.6867450200000000 10.2021708400000009
 23.6690373700000016  7.6867450200000000 10.2021708400000009
  8.8758886300000004  7.6867450200000000 10.2021708400000009
 26.6276658899999994  7.6867450200000000 10.2021708400000009
 31.0656112299999982  7.6867450200000000 10.2021708400000009
 32.5449249799999976  7.6867450200000000 10.2021708400000009
 35.5035535000000024  7.6867450200000000 10.2021708400000009
 36.9828692999999973  7.6867450200000000 10.2021708400000009
 39.9415008799999995  7.6867450200000000 10.2021708400000009
 41.4208115699999979  7.6867450200000000 10.2021708400000009
  0.0000000000000000 10.2489936999999998 10.2021708400000009
 28.1069796399999987  7.6867450200000000 10.2021708400000009
  5.9172590899999999  5.1244963400000003 10.2021708400000009
  5.9172590899999999  7.6867450200000000 10.2021708400000009
  1.4793147700000000  7.6867450200000000 10.2021708400000009
 10.3552034000000006  5.1244963400000003 10.2021708400000009
 13.3138329500000001  5.1244963400000003 10.2021708400000009
 14.7931477200000003  5.1244963400000003 10.2021708400000009
 17.7517772600000008  5.1244963400000003 10.2021708400000009
 19.2310920299999992  5.1244963400000003 10.2021708400000009
 22.1897215800000005  5.1244963400000003 10.2021708400000009
 23.6690373700000016  5.1244963400000003 10.2021708400000009
  4.4379443199999997  7.6867450200000000 10.2021708400000009
 26.6276658899999994  5.1244963400000003 10.2021708400000009
 31.0656112299999982  5.1244963400000003 10.2021708400000009
 32.5449249799999976  5.1244963400000003 10.2021708400000009
 35.5035535000000024  5.1244963400000003 10.2021708400000009
 36.9828692999999973  5.1244963400000003 10.2021708400000009
 39.9415008799999995  5.1244963400000003 10.2021708400000009
 41.4208115699999979  5.1244963400000003 10.2021708400000009
  0.0000000000000000  7.6867450200000000 10.2021708400000009
 28.1069796399999987  5.1244963400000003 10.2021708400000009
  5.9172590899999999  0.0000000000000000 10.2021708400000009
  4.4379443199999997  0.0000000000000000 10.2021708400000009
  1.4793147700000000  0.0000000000000000 10.2021708400000009
 41.4208115699999979 15.3734900400000001 10.2021708400000009
 39.9415008799999995 15.3734900400000001 10.2021708400000009
 36.9828692999999973 15.3734900400000001 10.2021708400000009
 35.5035535000000024 15.3734900400000001 10.2021708400000009
 32.5449249799999976 15.3734900400000001 10.2021708400000009
 31.0656112299999982 15.3734900400000001 10.2021708400000009
 28.1069796399999987 15.3734900400000001 10.2021708400000009
  0.0000000000000000 17.9357397499999998 10.2021708400000009
 26.6276658899999994 15.3734900400000001 10.2021708400000009
 22.1897215800000005 15.3734900400000001 10.2021708400000009
 19.2310920299999992 15.3734900400000001 10.2021708400000009
 17.7517772600000008 15.3734900400000001 10.2021708400000009
 14.7931477200000003 15.3734900400000001 10.2021708400000009
 13.3138329500000001 15.3734900400000001 10.2021708400000009
 10.3552034000000006 15.3734900400000001 10.2021708400000009
  8.8758886300000004 15.3734900400000001 10.2021708400000009
 23.6690373700000016 15.3734900400000001 10.2021708400000009
  5.9172590899999999 15.3734900400000001 10.2021708400000009
  1.4793147700000000 17.9357397499999998 10.2021708400000009
  5.9172590899999999 17.9357397499999998 10.2021708400000009
 41.4208115699999979 17.9357397499999998 10.2021708400000009
 39.9415008799999995 17.9357397499999998 10.2021708400000009
 36.9828692999999973 17.9357397499999998 10.2021708400000009
 35.5035535000000024 17.9357397499999998 10.2021708400000009
 32.5449249799999976 17.9357397499999998 10.2021708400000009
 31.0656112299999982 17.9357397499999998 10.2021708400000009
 28.1069796399999987 17.9357397499999998 10.2021708400000009
  4.4379443199999997 17.9357397499999998 10.2021708400000009
 26.6276658899999994 17.9357397499999998 10.2021708400000009
 22.1897215800000005 17.9357397499999998 10.2021708400000009
 19.2310920299999992 17.9357397499999998 10.2021708400000009
 17.7517772600000008 17.9357397499999998 10.2021708400000009
 14.7931477200000003 17.9357397499999998 10.2021708400000009
 13.3138329500000001 17.9357397499999998 10.2021708400000009
 10.3552034000000006 17.9357397499999998 10.2021708400000009
  8.8758886300000004 17.9357397499999998 10.2021708400000009
 23.6690373700000016 17.9357397499999998 10.2021708400000009
  4.4379443199999997 15.3734900400000001 10.2021708400000009
  0.0000000000000000 15.3734900400000001 10.2021708400000009
 41.4208115699999979 12.8112413600000004 10.2021708400000009
 36.9828692999999973 10.2489936999999998 10.2021708400000009
 35.5035535000000024 10.2489936999999998 10.2021708400000009
 32.5449249799999976 10.2489936999999998 10.2021708400000009
 31.0656112299999982 10.2489936999999998 10.2021708400000009
 28.1069796399999987 10.2489936999999998 10.2021708400000009
 26.6276658899999994 10.2489936999999998 10.2021708400000009
 23.6690373700000016 10.2489936999999998 10.2021708400000009
 39.9415008799999995 10.2489936999999998 10.2021708400000009
 22.1897215800000005 10.2489936999999998 10.2021708400000009
 17.7517772600000008 10.2489936999999998 10.2021708400000009
 14.7931477200000003 10.2489936999999998 10.2021708400000009
 13.3138329500000001 10.2489936999999998 10.2021708400000009
 10.3552034000000006 10.2489936999999998 10.2021708400000009
  8.8758886300000004 10.2489936999999998 10.2021708400000009
  5.9172590899999999 10.2489936999999998 10.2021708400000009
  0.0000000000000000  0.0000000000000000 10.2021708400000009
 19.2310920299999992 10.2489936999999998 10.2021708400000009
 41.4208115699999979 10.2489936999999998 10.2021708400000009
  0.0000000000000000 12.8112413600000004 10.2021708400000009
  1.4793147700000000 12.8112413600000004 10.2021708400000009
 39.9415008799999995 12.8112413600000004 10.2021708400000009
 36.9828692999999973 12.8112413600000004 10.2021708400000009
 35.5035535000000024 12.8112413600000004 10.2021708400000009
 32.5449249799999976 12.8112413600000004 10.2021708400000009
 31.0656112299999982 12.8112413600000004 10.2021708400000009
 28.1069796399999987 12.8112413600000004 10.2021708400000009
 26.6276658899999994 12.8112413600000004 10.2021708400000009
 23.6690373700000016 12.8112413600000004 10.2021708400000009
 22.1897215800000005 12.8112413600000004 10.2021708400000009
 19.2310920299999992 12.8112413600000004 10.2021708400000009
 17.7517772600000008 12.8112413600000004 10.2021708400000009
 14.7931477200000003 12.8112413600000004 10.2021708400000009
 13.3138329500000001 12.8112413600000004 10.2021708400000009
 10.3552034000000006 12.8112413600000004 10.2021708400000009
  8.8758886300000004 12.8112413600000004 10.2021708400000009
  5.9172590899999999 12.8112413600000004 10.2021708400000009
  4.4379443199999997 12.8112413600000004 10.2021708400000009
  1.4793147700000000 10.2489936999999998 10.2021708400000009
  4.4379443199999997 10.2489936999999998 10.2021708400000009
 14.5011899999999994  8.8352400000000006 12.5000000000000000
  5.6811600000000002 10.8013700000000004 12.5000000000000000
  9.8636300000000006 11.3359000000000005 12.5000000000000000
 10.8674599999999995 12.3160600000000002 12.5000000000000000
  7.9787699999999999 10.0567499999999992 12.5000000000000000
  8.4361099999999993 11.3763100000000001 12.5000000000000000
  6.6091899999999999  9.7492900000000002 12.5000000000000000
  6.1243400000000001 12.1251300000000004 12.5000000000000000
  7.4917199999999999 12.4234600000000004 12.5000000000000000
 29.0679499999999997 11.8477999999999994 12.5000000000000000
 29.4761500000000005 10.5109999999999992 12.5000000000000000
 28.5204899999999988  9.4862400000000004 12.5000000000000000
 27.1620799999999996  9.8378200000000007 12.5000000000000000
 26.7375000000000007 11.1655599999999993 12.5000000000000000
 27.7093200000000017 12.1866599999999998 12.5000000000000000
 24.8922799999999995  9.8277199999999993 12.5000000000000000
 25.3092299999999994 11.1554300000000008 12.5000000000000000
 23.5281899999999986  9.4742200000000008 12.5000000000000000
 22.5265699999999995 10.4653899999999993 12.5000000000000000
 10.2485599999999994 10.0016099999999994 12.5000000000000000
 22.9714300000000016 11.8025800000000007 12.5000000000000000
 11.6014599999999994  9.6069999999999993 12.5000000000000000
 30.9383300000000006 10.1734799999999996 12.5000000000000000
  4.2161200000000001 10.4761699999999998 12.5000000000000000
 14.0765200000000004 10.1793899999999997 12.5000000000000000
 15.0929599999999997 11.1537500000000005 12.5000000000000000
 16.4470199999999984 10.7767099999999996 12.5000000000000000
  9.0903799999999997  7.7996499999999997 12.5000000000000000
 16.8510799999999996  9.4484100000000009 12.5000000000000000
 15.8574500000000000  8.4563000000000006 12.5000000000000000
 12.6274899999999999 10.5729699999999998 12.5000000000000000
 18.7100200000000001 10.7606400000000004 12.5000000000000000
 18.2791600000000010  9.4370300000000000 12.5000000000000000
 20.0741399999999999 11.1018000000000008 12.5000000000000000
 21.0686999999999998 10.1049199999999999 12.5000000000000000
 26.0651100000000007  7.6034699999999997 12.5000000000000000
 20.6143500000000017  8.7710600000000003 12.5000000000000000
 19.2509399999999999  8.4238900000000001 12.5000000000000000
 12.2162000000000006 11.9216400000000000 12.5000000000000000
 17.5634599999999992 12.9993400000000001 12.5000000000000000
 24.3298500000000004 12.1606299999999994 12.5000000000000000
  3.9623699999999999  9.8945000000000007 11.6077700000000004
  3.9623699999999999  9.8945000000000007 13.3922299999999996
 13.7870799999999996  8.0175800000000006 12.5000000000000000
 16.1271400000000007  7.4043700000000001 12.5000000000000000
  9.6091400000000000  7.4555800000000003 11.6010700000000000
  9.6091400000000000  7.4555800000000003 13.3989300000000000
  8.0703800000000001  7.4149099999999999 12.5000000000000000
 17.0398600000000009 13.3339099999999995 11.6005299999999991
 17.0398700000000005 13.3339099999999995 13.3994700000000009
 18.5752699999999997 13.4046500000000002 12.5000000000000000
 26.5908400000000000  7.2735500000000002 11.6003200000000000
 26.5908400000000000  7.2735500000000002 13.3996800000000000
 25.0563299999999991  7.1894299999999998 12.5000000000000000
 31.4195099999999989 10.5824900000000000 11.6062999999999992
 31.0977299999999985  9.0897900000000007 12.5000000000000000
  3.6011000000000002 11.3812999999999995 12.5000000000000000
  6.2641099999999996  8.7202999999999999 12.5000000000000000
  5.4095199999999997 12.9447600000000005 12.5000000000000000
 31.4195099999999989 10.5824900000000000 13.3937100000000004
 27.4087299999999985 13.2303800000000003 12.5000000000000000
 14.8644200000000009 12.2108699999999999 12.5000000000000000
  7.8220200000000002 13.4582800000000002 12.5000000000000000
 11.8238099999999999  8.5480099999999997 12.5000000000000000
 10.6110399999999991 13.3710199999999997 12.5000000000000000
 20.3364200000000004 12.1502599999999994 12.5000000000000000
 18.9578999999999986  7.3779599999999999 12.5000000000000000
 21.3085200000000015  7.9366700000000003 12.5000000000000000
 22.2739200000000004 12.6340100000000000 12.5000000000000000
 12.9351500000000001 12.7346699999999995 12.5000000000000000
 23.2700800000000001  8.4243299999999994 12.5000000000000000
 28.8237799999999993  8.4439299999999999 12.5000000000000000
 29.8086300000000008 12.6444799999999997 12.5000000000000000
 24.6136100000000013 13.2088099999999997 12.5000000000000000
  2.2189721599999999 14.0923667199999993 10.2021708400000009
  3.6982869300000001 14.0923667199999993 10.2021708400000009
  6.6569164699999996 14.0923667199999993 10.2021708400000009
  8.1362312499999998 14.0923667199999993 10.2021708400000009
 11.0948607900000003 14.0923667199999993 10.2021708400000009
 12.5741755600000005 14.0923667199999993 10.2021708400000009
 15.5328050999999991 14.0923667199999993 10.2021708400000009
 19.9707504399999998 14.0923667199999993 10.2021708400000009
 21.4500641899999991 14.0923667199999993 10.2021708400000009
 24.4086927200000012 14.0923667199999993 10.2021708400000009
 33.2845823700000025 14.0923667199999993 10.2021708400000009
 28.8466380499999993 14.0923667199999993 10.2021708400000009
 30.3259528200000013 14.0923667199999993 10.2021708400000009
 25.8880085099999988 14.0923667199999993 10.2021708400000009
 44.3528028500000033 14.0923667199999993 10.2021708400000009
 17.0121188600000011 14.0923667199999993 10.2021708400000009
 42.1604720200000003 11.5301180399999996 10.2021708400000009
  8.1362312499999998 11.5301180399999996 10.2021708400000009
 37.7225246400000032 11.5301180399999996 10.2021708400000009
  6.6569164699999996 11.5301180399999996 10.2021708400000009
 34.7638981599999966 14.0923667199999993 10.2021708400000009
  3.6982869300000001 11.5301180399999996 10.2021708400000009
  2.2189721599999999 11.5301180399999996 10.2021708400000009
 44.3528028500000033 11.5301180399999996 10.2021708400000009
 11.0948607900000003 11.5301180399999996 10.2021708400000009
 12.5741755600000005 11.5301180399999996 10.2021708400000009
 15.5328050999999991 11.5301180399999996 10.2021708400000009
 17.0121188600000011 11.5301180399999996 10.2021708400000009
 19.9707504399999998 11.5301180399999996 10.2021708400000009
 21.4500641899999991 11.5301180399999996 10.2021708400000009
 24.4086927200000012 11.5301180399999996 10.2021708400000009
 25.8880085099999988 11.5301180399999996 10.2021708400000009
 28.8466380499999993 11.5301180399999996 10.2021708400000009
 30.3259528200000013 11.5301180399999996 10.2021708400000009
 33.2845823700000025 11.5301180399999996 10.2021708400000009
 34.7638981599999966 11.5301180399999996 10.2021708400000009
 39.2018404299999972 11.5301180399999996 10.2021708400000009
 37.7225246400000032 14.0923667199999993 10.2021708400000009
 28.8466380499999993 19.2168620499999996 10.2021708400000009
 42.1604720200000003 14.0923667199999993 10.2021708400000009
  2.2189721599999999 19.2168620499999996 10.2021708400000009
  3.6982869300000001 19.2168620499999996 10.2021708400000009
  6.6569164699999996 19.2168620499999996 10.2021708400000009
  8.1362312499999998 19.2168620499999996 10.2021708400000009
 11.0948607900000003 19.2168620499999996 10.2021708400000009
 12.5741755600000005 19.2168620499999996 10.2021708400000009
 15.5328050999999991 19.2168620499999996 10.2021708400000009
 17.0121188600000011 19.2168620499999996 10.2021708400000009
 19.9707504399999998 19.2168620499999996 10.2021708400000009
 21.4500641899999991 19.2168620499999996 10.2021708400000009
 24.4086927200000012 19.2168620499999996 10.2021708400000009
 25.8880085099999988 19.2168620499999996 10.2021708400000009
 42.1604720200000003  8.9678693599999999 10.2021708400000009
 30.3259528200000013 19.2168620499999996 10.2021708400000009
 33.2845823700000025 19.2168620499999996 10.2021708400000009
 34.7638981599999966 19.2168620499999996 10.2021708400000009
 37.7225246400000032 19.2168620499999996 10.2021708400000009
 44.3528028500000033 19.2168620499999996 10.2021708400000009
 39.2018404299999972 14.0923667199999993 10.2021708400000009
 42.1604720200000003 16.6546143899999990 10.2021708400000009
 37.7225246400000032 16.6546143899999990 10.2021708400000009
 44.3528028500000033 16.6546143899999990 10.2021708400000009
  2.2189721599999999 16.6546143899999990 10.2021708400000009
  3.6982869300000001 16.6546143899999990 10.2021708400000009
  6.6569164699999996 16.6546143899999990 10.2021708400000009
  8.1362312499999998 16.6546143899999990 10.2021708400000009
 11.0948607900000003 16.6546143899999990 10.2021708400000009
 12.5741755600000005 16.6546143899999990 10.2021708400000009
 15.5328050999999991 16.6546143899999990 10.2021708400000009
 17.0121188600000011 16.6546143899999990 10.2021708400000009
 19.9707504399999998 16.6546143899999990 10.2021708400000009
 21.4500641899999991 16.6546143899999990 10.2021708400000009
 24.4086927200000012 16.6546143899999990 10.2021708400000009
 25.8880085099999988 16.6546143899999990 10.2021708400000009
 28.8466380499999993 16.6546143899999990 10.2021708400000009
 30.3259528200000013 16.6546143899999990 10.2021708400000009
 33.2845823700000025 16.6546143899999990 10.2021708400000009
 34.7638981599999966 16.6546143899999990 10.2021708400000009
 39.2018404299999972 16.6546143899999990 10.2021708400000009
 39.2018404299999972  8.9678693599999999 10.2021708400000009
  2.2189721599999999  6.4056206800000002 10.2021708400000009
 34.7638981599999966  8.9678693599999999 10.2021708400000009
 37.7225246400000032  1.2811243400000001 10.2021708400000009
 39.2018404299999972  1.2811243400000001 10.2021708400000009
 42.1604720200000003  1.2811243400000001 10.2021708400000009
 44.3528028500000033  3.8433720000000000 10.2021708400000009
  2.2189721599999999  3.8433720000000000 10.2021708400000009
  3.6982869300000001  3.8433720000000000 10.2021708400000009
  6.6569164699999996  3.8433720000000000 10.2021708400000009
 34.7638981599999966  1.2811243400000001 10.2021708400000009
  8.1362312499999998  3.8433720000000000 10.2021708400000009
 12.5741755600000005  3.8433720000000000 10.2021708400000009
 15.5328050999999991  3.8433720000000000 10.2021708400000009
 17.0121188600000011  3.8433720000000000 10.2021708400000009
 19.9707504399999998  3.8433720000000000 10.2021708400000009
 21.4500641899999991  3.8433720000000000 10.2021708400000009
 24.4086927200000012  3.8433720000000000 10.2021708400000009
 25.8880085099999988  3.8433720000000000 10.2021708400000009
 11.0948607900000003  3.8433720000000000 10.2021708400000009
 33.2845823700000025  1.2811243400000001 10.2021708400000009
 30.3259528200000013  1.2811243400000001 10.2021708400000009
 28.8466380499999993  1.2811243400000001 10.2021708400000009
 26.0293500000000009  9.0496900000000000 12.5000000000000000
  9.0936400000000006  9.2462700000000009 12.5000000000000000
 17.5852900000000005 11.5527400000000000 12.5000000000000000
 39.2018404299999972 19.2168620499999996 10.2021708400000009
 44.3528028500000033  1.2811243400000001 10.2021708400000009
  2.2189721599999999  1.2811243400000001 10.2021708400000009
  3.6982869300000001  1.2811243400000001 10.2021708400000009
  6.6569164699999996  1.2811243400000001 10.2021708400000009
  8.1362312499999998  1.2811243400000001 10.2021708400000009
 11.0948607900000003  1.2811243400000001 10.2021708400000009
 12.5741755600000005  1.2811243400000001 10.2021708400000009
 15.5328050999999991  1.2811243400000001 10.2021708400000009
 17.0121188600000011  1.2811243400000001 10.2021708400000009
 19.9707504399999998  1.2811243400000001 10.2021708400000009
 21.4500641899999991  1.2811243400000001 10.2021708400000009
 24.4086927200000012  1.2811243400000001 10.2021708400000009
 25.8880085099999988  1.2811243400000001 10.2021708400000009
 28.8466380499999993  3.8433720000000000 10.2021708400000009
 30.3259528200000013  3.8433720000000000 10.2021708400000009
 33.2845823700000025  3.8433720000000000 10.2021708400000009
 34.7638981599999966  3.8433720000000000 10.2021708400000009
 42.1604720200000003  6.4056206800000002 10.2021708400000009
 44.3528028500000033  8.9678693599999999 10.2021708400000009
  2.2189721599999999  8.9678693599999999 10.2021708400000009
  3.6982869300000001  8.9678693599999999 10.2021708400000009
  6.6569164699999996  8.9678693599999999 10.2021708400000009
  8.1362312499999998  8.9678693599999999 10.2021708400000009
 11.0948607900000003  8.9678693599999999 10.2021708400000009
 12.5741755600000005  8.9678693599999999 10.2021708400000009
 15.5328050999999991  8.9678693599999999 10.2021708400000009
 17.0121188600000011  8.9678693599999999 10.2021708400000009
 19.9707504399999998  8.9678693599999999 10.2021708400000009
 21.4500641899999991  8.9678693599999999 10.2021708400000009
 24.4086927200000012  8.9678693599999999 10.2021708400000009
 25.8880085099999988  8.9678693599999999 10.2021708400000009
 28.8466380499999993  8.9678693599999999 10.2021708400000009
 30.3259528200000013  8.9678693599999999 10.2021708400000009
 33.2845823700000025  8.9678693599999999 10.2021708400000009
 39.2018404299999972  6.4056206800000002 10.2021708400000009
 37.7225246400000032  8.9678693599999999 10.2021708400000009
 37.7225246400000032  6.4056206800000002 10.2021708400000009
 33.2845823700000025  6.4056206800000002 10.2021708400000009
 37.7225246400000032  3.8433720000000000 10.2021708400000009
 39.2018404299999972  3.8433720000000000 10.2021708400000009
 42.1604720200000003  3.8433720000000000 10.2021708400000009
 44.3528028500000033  6.4056206800000002 10.2021708400000009
  3.6982869300000001  6.4056206800000002 10.2021708400000009
  6.6569164699999996  6.4056206800000002 10.2021708400000009
  8.1362312499999998  6.4056206800000002 10.2021708400000009
 11.0948607900000003  6.4056206800000002 10.2021708400000009
 12.5741755600000005  6.4056206800000002 10.2021708400000009
 15.5328050999999991  6.4056206800000002 10.2021708400000009
 17.0121188600000011  6.4056206800000002 10.2021708400000009
 19.9707504399999998  6.4056206800000002 10.2021708400000009
 21.4500641899999991  6.4056206800000002 10.2021708400000009
 24.4086927200000012  6.4056206800000002 10.2021708400000009
 25.8880085099999988  6.4056206800000002 10.2021708400000009
 28.8466380499999993  6.4056206800000002 10.2021708400000009
 30.3259528200000013  6.4056206800000002 10.2021708400000009
 34.7638981599999966  6.4056206800000002 10.2021708400000009
 42.1604720200000003 19.2168620499999996 10.2021708400000009
