adsorbate = N_linear.xyz, surface = resources/zigzag.vdW.CONTCAR, shift = [0.0, 0.0, 10.0], in-plane rotation = 90
 1.0000000000000000
    45.0924602317194143    0.0000000000000000    0.0000000000000000
     0.0000000000000000   22.2001828173343476    0.0000000000000000
     0.0000000000000000    0.0000000000000000   20.4043416806197726
   B   C   H   N
 160  41  33 163
Cartesian
  1.4793147700000000 15.3734900400000001 10.2021708400000009
 10.3552034000000006  2.5622486800000002 10.2021708400000009
 13.3138329500000001  2.5622486800000002 10.2021708400000009
 14.7931477200000003  2.5622486800000002 10.2021708400000009
 17.7517772600000008  2.5622486800000002 10.2021708400000009
 19.2310920299999992  2.5622486800000002 10.2021708400000009
 22.1897215800000005  2.5622486800000002 10.2021708400000009
 23.6690373700000016  2.5622486800000002 10.2021708400000009
  8.8758886300000004  2.5622486800000002 10.2021708400000009
 26.6276658899999994  2.5622486800000002 10.2021708400000009
 31.0656112299999982  2.5622486800000002 10.2021708400000009
 32.5449249799999976  2.5622486800000002 10.2021708400000009
 35.5035535000000024  2.5622486800000002 10.2021708400000009
 36.9828692999999973  2.5622486800000002 10.2021708400000009
 39.9415008799999995  2.5622486800000002 10.2021708400000009
 41.4208115699999979  2.5622486800000002 10.2021708400000009
  0.0000000000000000  5.1244963400000003 10.2021708400000009
 28.1069796399999987  2.5622486800000002 10.2021708400000009
  1.4793147700000000  5.1244963400000003 10.2021708400000009
  5.9172590899999999  2.5622486800000002 10.2021708400000009
  1.4793147700000000  2.5622486800000002 10.2021708400000009
 10.3552034000000006  0.0000000000000000 10.2021708400000009
 13.3138329500000001  0.0000000000000000 10.2021708400000009
 14.7931477200000003  0.0000000000000000 10.2021708400000009
 17.7517772600000008  0.0000000000000000 10.2021708400000009
 19.2310920299999992  0.0000000000000000 10.2021708400000009
 22.1897215800000005  0.0000000000000000 10.2021708400000009
 23.6690373700000016  0.0000000000000000 10.2021708400000009
  4.4379443199999997  2.5622486800000002 10.2021708400000009
 26.6276658899999994  0.0000000000000000 10.2021708400000009
 31.0656112299999982  0.0000000000000000 10.2021708400000009
 32.5449249799999976  0.0000000000000000 10.2021708400000009
 35.5035535000000024  0.0000000000000000 10.2021708400000009
 36.9828692999999973  0.0000000000000000 10.2021708400000009
 39.9415008799999995  0.0000000000000000 10.2021708400000009
 41.4208115699999979  0.0000000000000000 10.2021708400000009
  0.0000000000000000  2.5622486800000002 10.2021708400000009
 28.1069796399999987  0.0000000000000000 10.2021708400000009
  8.8758886300000004  0.0000000000000000 10.2021708400000009
  4.4379443199999997  5.1244963400000003 10.2021708400000009
  8.8758886300000004  5.1244963400000003 10.2021708400000009
 10.3552034000000006  7.6867450200000000 10.2021708400000009
 13.3138329500000001  7.6867450200000000 10.2021708400000009
 14.7931477200000003  7.6867450200000000 10.2021708400000009
 17.7517772600000008  7.6867450200000000 10.2021708400000009
 19.2310920299999992  7.6867450200000000 10.2021708400000009
 22.1897215800000005  7.6867450200000000 10.2021708400000009
 23.6690373700000016  7.6867450200000000 10.2021708400000009
  8.8758886300000004  7.6867450200000000 10.2021708400000009
 26.6276658899999994  7.6867450200000000 10.2021708400000009
 31.0656112299999982  7.6867450200000000 10.2021708400000009
 32.5449249799999976  7.6867450200000000 10.2021708400000009
 35.5035535000000024  7.6867450200000000 10.2021708400000009
 36.9828692999999973  7.6867450200000000 10.2021708400000009
 39.9415008799999995  7.6867450200000000 10.2021708400000009
 41.4208115699999979  7.6867450200000000 10.2021708400000009
  0.0000000000000000 10.2489936999999998 10.2021708400000009
 28.1069796399999987  7.6867450200000000 10.2021708400000009
  5.9172590899999999  5.1244963400000003 10.2021708400000009
  5.9172590899999999  7.6867450200000000 10.2021708400000009
  1.4793147700000000  7.6867450200000000 10.2021708400000009
 10.3552034000000006  5.1244963400000003 10.2021708400000009
 13.3138329500000001  5.1244963400000003 10.2021708400000009
 14.7931477200000003  5.1244963400000003 10.2021708400000009
 17.7517772600000008  5.1244963400000003 10.2021708400000009
 19.2310920299999992  5.1244963400000003 10.2021708400000009
 22.1897215800000005  5.1244963400000003 10.2021708400000009
 23.6690373700000016  5.1244963400000003 10.2021708400000009
  4.4379443199999997  7.6867450200000000 10.2021708400000009
 26.6276658899999994  5.1244963400000003 10.2021708400000009
 31.0656112299999982  5.1244963400000003 10.2021708400000009
 32.5449249799999976  5.1244963400000003 10.2021708400000009
 35.5035535000000024  5.1244963400000003 10.2021708400000009
 36.9828692999999973  5.1244963400000003 10.2021708400000009
 39.9415008799999995  5.1244963400000003 10.2021708400000009
 41.4208115699999979  5.1244963400000003 10.2021708400000009
  0.0000000000000000  7.6867450200000000 10.2021708400000009
 28.1069796399999987  5.1244963400000003 10.2021708400000009
  5.9172590899999999  0.0000000000000000 10.2021708400000009
  4.4379443199999997  0.0000000000000000 10.2021708400000009
  1.4793147700000000  0.0000000000000000 10.2021708400000009
 41.4208115699999979 15.3734900400000001 10.2021708400000009
 39.9415008799999995 15.3734900400000001 10.2021708400000009
 36.9828692999999973 15.3734900400000001 10.2021708400000009
 35.5035535000000024 15.3734900400000001 10.2021708400000009
 32.5449249799999976 15.3734900400000001 10.2021708400000009
 31.0656112299999982 15.3734900400000001 10.2021708400000009
 28.1069796399999987 15.3734900400000001 10.2021708400000009
  0.0000000000000000 17.9357397499999998 10.2021708400000009
 26.6276658899999994 15.3734900400000001 10.2021708400000009
 22.1897215800000005 15.3734900400000001 10.2021708400000009
 19.2310920299999992 15.3734900400000001 10.2021708400000009
 17.7517772600000008 15.3734900400000001 10.2021708400000009
 14.7931477200000003 15.3734900400000001 10.2021708400000009
 13.3138329500000001 15.3734900400000001 10.2021708400000009
 10.3552034000000006 15.3734900400000001 10.2021708400000009
  8.8758886300000004 15.3734900400000001 10.2021708400000009
 23.6690373700000016 15.3734900400000001 10.2021708400000009
  5.9172590899999999 15.3734900400000001 10.2021708400000009
  1.4793147700000000 17.9357397499999998 10.2021708400000009
  5.9172590899999999 17.9357397499999998 10.2021708400000009
 41.4208115699999979 17.9357397499999998 10.2021708400000009
 39.9415008799999995 17.9357397499999998 10.2021708400000009
 36.9828692999999973 17.9357397499999998 10.2021708400000009
 35.5035535000000024 17.9357397499999998 10.2021708400000009
 32.5449249799999976 17.9357397499999998 10.2021708400000009
 31.0656112299999982 17.9357397499999998 10.2021708400000009
 28.1069796399999987 17.9357397499999998 10.2021708400000009
  4.4379443199999997 17.9357397499999998 10.2021708400000009
 26.6276658899999994 17.9357397499999998 10.2021708400000009
 22.1897215800000005 17.9357397499999998 10.2021708400000009
 19.2310920299999992 17.9357397499999998 10.2021708400000009
 17.7517772600000008 17.9357397499999998 10.2021708400000009
 14.7931477200000003 17.9357397499999998 10.2021708400000009
 13.3138329500000001 17.9357397499999998 10.2021708400000009
 10.3552034000000006 17.9357397499999998 10.2021708400000009
  8.8758886300000004 17.9357397499999998 10.2021708400000009
 23.6690373700000016 17.9357397499999998 10.2021708400000009
  4.4379443199999997 15.3734900400000001 10.2021708400000009
  0.0000000000000000 15.3734900400000001 10.2021708400000009
 41.4208115699999979 12.8112413600000004 10.2021708400000009
 36.9828692999999973 10.2489936999999998 10.2021708400000009
 35.5035535000000024 10.2489936999999998 10.2021708400000009
 32.5449249799999976 10.2489936999999998 10.2021708400000009
 31.0656112299999982 10.2489936999999998 10.2021708400000009
 28.1069796399999987 10.2489936999999998 10.2021708400000009
 26.6276658899999994 10.2489936999999998 10.2021708400000009
 23.6690373700000016 10.2489936999999998 10.2021708400000009
 39.9415008799999995 10.2489936999999998 10.2021708400000009
 22.1897215800000005 10.2489936999999998 10.2021708400000009
 17.7517772600000008 10.2489936999999998 10.2021708400000009
 14.7931477200000003 10.2489936999999998 10.2021708400000009
 13.3138329500000001 10.2489936999999998 10.2021708400000009
 10.3552034000000006 10.2489936999999998 10.2021708400000009
  8.8758886300000004 10.2489936999999998 10.2021708400000009
  5.9172590899999999 10.2489936999999998 10.2021708400000009
  0.0000000000000000  0.0000000000000000 10.2021708400000009
 19.2310920299999992 10.2489936999999998 10.2021708400000009
 41.4208115699999979 10.2489936999999998 10.2021708400000009
  0.0000000000000000 12.8112413600000004 10.2021708400000009
  1.4793147700000000 12.8112413600000004 10.2021708400000009
 39.9415008799999995 12.8112413600000004 10.2021708400000009
 36.9828692999999973 12.8112413600000004 10.2021708400000009
 35.5035535000000024 12.8112413600000004 10.2021708400000009
 32.5449249799999976 12.8112413600000004 10.2021708400000009
 31.0656112299999982 12.8112413600000004 10.2021708400000009
 28.1069796399999987 12.8112413600000004 10.2021708400000009
 26.6276658899999994 12.8112413600000004 10.2021708400000009
 23.6690373700000016 12.8112413600000004 10.2021708400000009
 22.1897215800000005 12.8112413600000004 10.2021708400000009
 19.2310920299999992 12.8112413600000004 10.2021708400000009
 17.7517772600000008 12.8112413600000004 10.2021708400000009
 14.7931477200000003 12.8112413600000004 10.2021708400000009
 13.3138329500000001 12.8112413600000004 10.2021708400000009
 10.3552034000000006 12.8112413600000004 10.2021708400000009
  8.8758886300000004 12.8112413600000004 10.2021708400000009
  5.9172590899999999 12.8112413600000004 10.2021708400000009
  4.4379443199999997 12.8112413600000004 10.2021708400000009
  1.4793147700000000 10.2489936999999998 10.2021708400000009
  4.4379443199999997 10.2489936999999998 10.2021708400000009
 19.1004976623000005  7.2817983116900002 12.5000000000000000
 17.1343676623000007 -1.5382316883100000 12.5000000000000000
 16.5998376623000006  2.6442383116900001 12.5000000000000000
 15.6196776623000009  3.6480683116899999 12.5000000000000000
 17.8789876622999984  0.7593783116880000 12.5000000000000000
 16.5594276622999992  1.2167183116900000 12.5000000000000000
 18.1864476623000009 -0.6102016883119999 12.5000000000000000
 15.8106076623000007 -1.0950516883100001 12.5000000000000000
 15.5122776623000007  0.2723283116880000 12.5000000000000000
 16.0879376622999999 21.8485583116999997 12.5000000000000000
 17.4247376623000001 22.2567583117000005 12.5000000000000000
 18.4494976623000007 21.3010983116999988 12.5000000000000000
 18.0979176622999987 19.9426883116999996 12.5000000000000000
 16.7701776623000001 19.5181083117000007 12.5000000000000000
 15.7490776622999995 20.4899283117000017 12.5000000000000000
 18.1080176623000000 17.6728883116999995 12.5000000000000000
 16.7803076623000003 18.0898383116999995 12.5000000000000000
 18.4615176623000004 16.3087983116999986 12.5000000000000000
 17.4703476623000000 15.3071783116999995 12.5000000000000000
 17.9341276622999999  3.0291683116899999 12.5000000000000000
 16.1331576623000004 15.7520383116999998 12.5000000000000000
 18.3287376623000000  4.3820683116900003 12.5000000000000000
 17.7622576623000015 23.7189383117000006 12.5000000000000000
 17.4595676622999996 -3.0032716883099999 12.5000000000000000
 17.7563476623000014  6.8571283116900004 12.5000000000000000
 16.7819876623000006  7.8735683116899997 12.5000000000000000
 17.1590276623000015  9.2276283116899993 12.5000000000000000
 20.1360876622999996  1.8709883116899999 12.5000000000000000
 18.4873276623000002  9.6316883116900005 12.5000000000000000
 19.4794376623000005  8.6380583116899992 12.5000000000000000
 17.3627676623000013  5.4080983116899999 12.5000000000000000
 17.1750976623000007 11.4906283117000001 12.5000000000000000
 18.4987076622999993 11.0597683116999992 12.5000000000000000
 16.8339376622999985 12.8547483116999999 12.5000000000000000
 17.8308176622999994 13.8493083116999998 12.5000000000000000
 20.3322676623000014 18.8457183117000007 12.5000000000000000
 19.1646776623000008 13.3949583117000000 12.5000000000000000
 19.5118476622999992 12.0315483116999999 12.5000000000000000
 16.0140976622999993  4.9968083116899997 12.5000000000000000
 14.9363976622999992 10.3440683116999992 12.5000000000000000
 15.7751076622999999 17.1104583117000004 12.5000000000000000
 18.0412376622999986 -3.2570216883100001 11.6077700000000004
 18.0412376622999986 -3.2570216883100001 13.3922299999999996
 19.9181576623000005  6.5676883116899996 12.5000000000000000
 20.5313676622999992  8.9077483116899998 12.5000000000000000
 20.4801576623000017  2.3897483116900000 11.6010700000000000
 20.4801576623000017  2.3897483116900000 13.3989300000000000
 20.5208276623000003  0.8509883116880000 12.5000000000000000
 14.6018276622999998  9.8204683116900000 11.6005299999999991
 14.6018276622999998  9.8204783116899996 13.3994700000000009
 14.5310876622999992 11.3558783116999997 12.5000000000000000
 20.6621876622999991 19.3714483117000000 11.6003200000000000
 20.6621876622999991 19.3714483117000000 13.3996800000000000
 20.7463076623000013 17.8369383116999991 12.5000000000000000
 17.3532476622999994 24.2001183116999989 11.6062999999999992
 18.8459476622999986 23.8783383116999985 12.5000000000000000
 16.5544376622999998 -3.6182916883099998 12.5000000000000000
 19.2154376623000012 -0.9552816883120000 12.5000000000000000
 14.9909776623000006 -1.8098716883099999 12.5000000000000000
 17.3532476622999994 24.2001183116999989 13.3937100000000004
 14.7053576623000009 20.1893383116999985 12.5000000000000000
 15.7248676622999994  7.6450283116900000 12.5000000000000000
 14.4774576623000009  0.6026283116880000 12.5000000000000000
 19.3877276623000014  4.6044183116899999 12.5000000000000000
 14.5647176622999996  3.3916483116900000 12.5000000000000000
 15.7854776622999999 13.1170283117000004 12.5000000000000000
 20.5577776623000013 11.7385083117000004 12.5000000000000000
 19.9990676622999999 14.0891283116999997 12.5000000000000000
 15.3017276622999994 15.0545283117000004 12.5000000000000000
 15.2010676622999998  5.7157583116900001 12.5000000000000000
 19.5114076623000017 16.0506883117000001 12.5000000000000000
 19.4918076623000012 21.6043883116999993 12.5000000000000000
 15.2912576622999996 22.5892383117000008 12.5000000000000000
 14.7269276622999996 17.3942183117000013 12.5000000000000000
  2.2189721599999999 14.0923667199999993 10.2021708400000009
  3.6982869300000001 14.0923667199999993 10.2021708400000009
  6.6569164699999996 14.0923667199999993 10.2021708400000009
  8.1362312499999998 14.0923667199999993 10.2021708400000009
 11.0948607900000003 14.0923667199999993 10.2021708400000009
 12.5741755600000005 14.0923667199999993 10.2021708400000009
 15.5328050999999991 14.0923667199999993 10.2021708400000009
 19.9707504399999998 14.0923667199999993 10.2021708400000009
 21.4500641899999991 14.0923667199999993 10.2021708400000009
 24.4086927200000012 14.0923667199999993 10.2021708400000009
 33.2845823700000025 14.0923667199999993 10.2021708400000009
 28.8466380499999993 14.0923667199999993 10.2021708400000009
 30.3259528200000013 14.0923667199999993 10.2021708400000009
 25.8880085099999988 14.0923667199999993 10.2021708400000009
 44.3528028500000033 14.0923667199999993 10.2021708400000009
 17.0121188600000011 14.0923667199999993 10.2021708400000009
 42.1604720200000003 11.5301180399999996 10.2021708400000009
  8.1362312499999998 11.5301180399999996 10.2021708400000009
 37.7225246400000032 11.5301180399999996 10.2021708400000009
  6.6569164699999996 11.5301180399999996 10.2021708400000009
 34.7638981599999966 14.0923667199999993 10.2021708400000009
  3.6982869300000001 11.5301180399999996 10.2021708400000009
  2.2189721599999999 11.5301180399999996 10.2021708400000009
 44.3528028500000033 11.5301180399999996 10.2021708400000009
 11.0948607900000003 11.5301180399999996 10.2021708400000009
 12.5741755600000005 11.5301180399999996 10.2021708400000009
 15.5328050999999991 11.5301180399999996 10.2021708400000009
 17.0121188600000011 11.5301180399999996 10.2021708400000009
 19.9707504399999998 11.5301180399999996 10.2021708400000009
 21.4500641899999991 11.5301180399999996 10.2021708400000009
 24.4086927200000012 11.5301180399999996 10.2021708400000009
 25.8880085099999988 11.5301180399999996 10.2021708400000009
 28.8466380499999993 11.5301180399999996 10.2021708400000009
 30.3259528200000013 11.5301180399999996 10.2021708400000009
 33.2845823700000025 11.5301180399999996 10.2021708400000009
 34.7638981599999966 11.5301180399999996 10.2021708400000009
 39.2018404299999972 11.5301180399999996 10.2021708400000009
 37.7225246400000032 14.0923667199999993 10.2021708400000009
 28.8466380499999993 19.2168620499999996 10.2021708400000009
 42.1604720200000003 14.0923667199999993 10.2021708400000009
  2.2189721599999999 19.2168620499999996 10.2021708400000009
  3.6982869300000001 19.2168620499999996 10.2021708400000009
  6.6569164699999996 19.2168620499999996 10.2021708400000009
  8.1362312499999998 19.2168620499999996 10.2021708400000009
 11.0948607900000003 19.2168620499999996 10.2021708400000009
 12.5741755600000005 19.2168620499999996 10.2021708400000009
 15.5328050999999991 19.2168620499999996 10.2021708400000009
 17.0121188600000011 19.2168620499999996 10.2021708400000009
 19.9707504399999998 19.2168620499999996 10.2021708400000009
 21.4500641899999991 19.2168620499999996 10.2021708400000009
 24.4086927200000012 19.2168620499999996 10.2021708400000009
 25.8880085099999988 19.2168620499999996 10.2021708400000009
 42.1604720200000003  8.9678693599999999 10.2021708400000009
 30.3259528200000013 19.2168620499999996 10.2021708400000009
 33.2845823700000025 19.2168620499999996 10.2021708400000009
 34.7638981599999966 19.2168620499999996 10.2021708400000009
 37.7225246400000032 19.2168620499999996 10.2021708400000009
 44.3528028500000033 19.2168620499999996 10.2021708400000009
 39.2018404299999972 14.0923667199999993 10.2021708400000009
 42.1604720200000003 16.6546143899999990 10.2021708400000009
 37.7225246400000032 16.6546143899999990 10.2021708400000009
 44.3528028500000033 16.6546143899999990 10.2021708400000009
  2.2189721599999999 16.6546143899999990 10.2021708400000009
  3.6982869300000001 16.6546143899999990 10.2021708400000009
  6.6569164699999996 16.6546143899999990 10.2021708400000009
  8.1362312499999998 16.6546143899999990 10.2021708400000009
 11.0948607900000003 16.6546143899999990 10.2021708400000009
 12.5741755600000005 16.6546143899999990 10.2021708400000009
 15.5328050999999991 16.6546143899999990 10.2021708400000009
 17.0121188600000011 16.6546143899999990 10.2021708400000009
 19.9707504399999998 16.6546143899999990 10.2021708400000009
 21.4500641899999991 16.6546143899999990 10.2021708400000009
 24.4086927200000012 16.6546143899999990 10.2021708400000009
 25.8880085099999988 16.6546143899999990 10.2021708400000009
 28.8466380499999993 16.6546143899999990 10.2021708400000009
 30.3259528200000013 16.6546143899999990 10.2021708400000009
 33.2845823700000025 16.6546143899999990 10.2021708400000009
 34.7638981599999966 16.6546143899999990 10.2021708400000009
 39.2018404299999972 16.6546143899999990 10.2021708400000009
 39.2018404299999972  8.9678693599999999 10.2021708400000009
  2.2189721599999999  6.4056206800000002 10.2021708400000009
 34.7638981599999966  8.9678693599999999 10.2021708400000009
 37.7225246400000032  1.2811243400000001 10.2021708400000009
 39.2018404299999972  1.2811243400000001 10.2021708400000009
 42.1604720200000003  1.2811243400000001 10.2021708400000009
 44.3528028500000033  3.8433720000000000 10.2021708400000009
  2.2189721599999999  3.8433720000000000 10.2021708400000009
  3.6982869300000001  3.8433720000000000 10.2021708400000009
  6.6569164699999996  3.8433720000000000 10.2021708400000009
 34.7638981599999966  1.2811243400000001 10.2021708400000009
  8.1362312499999998  3.8433720000000000 10.2021708400000009
 12.5741755600000005  3.8433720000000000 10.2021708400000009
 15.5328050999999991  3.8433720000000000 10.2021708400000009
 17.0121188600000011  3.8433720000000000 10.2021708400000009
 19.9707504399999998  3.8433720000000000 10.2021708400000009
 21.4500641899999991  3.8433720000000000 10.2021708400000009
 24.4086927200000012  3.8433720000000000 10.2021708400000009
 25.8880085099999988  3.8433720000000000 10.2021708400000009
 11.0948607900000003  3.8433720000000000 10.2021708400000009
 33.2845823700000025  1.2811243400000001 10.2021708400000009
 30.3259528200000013  1.2811243400000001 10.2021708400000009
 28.8466380499999993  1.2811243400000001 10.2021708400000009
 18.8860476623000011 18.8099583117000009 12.5000000000000000
 18.6894676623000002  1.8742483116899999 12.5000000000000000
 16.3829976622999993 10.3658983117000005 12.5000000000000000
 39.2018404299999972 19.2168620499999996 10.2021708400000009
 44.3528028500000033  1.2811243400000001 10.2021708400000009
  2.2189721599999999  1.2811243400000001 10.2021708400000009
  3.6982869300000001  1.2811243400000001 10.2021708400000009
  6.6569164699999996  1.2811243400000001 10.2021708400000009
  8.1362312499999998  1.2811243400000001 10.2021708400000009
 11.0948607900000003  1.2811243400000001 10.2021708400000009
 12.5741755600000005  1.2811243400000001 10.2021708400000009
 15.5328050999999991  1.2811243400000001 10.2021708400000009
 17.0121188600000011  1.2811243400000001 10.2021708400000009
 19.9707504399999998  1.2811243400000001 10.2021708400000009
 21.4500641899999991  1.2811243400000001 10.2021708400000009
 24.4086927200000012  1.2811243400000001 10.2021708400000009
 25.8880085099999988  1.2811243400000001 10.2021708400000009
 28.8466380499999993  3.8433720000000000 10.2021708400000009
 30.3259528200000013  3.8433720000000000 10.2021708400000009
 33.2845823700000025  3.8433720000000000 10.2021708400000009
 34.7638981599999966  3.8433720000000000 10.2021708400000009
 42.1604720200000003  6.4056206800000002 10.2021708400000009
 44.3528028500000033  8.9678693599999999 10.2021708400000009
  2.2189721599999999  8.9678693599999999 10.2021708400000009
  3.6982869300000001  8.9678693599999999 10.2021708400000009
  6.6569164699999996  8.9678693599999999 10.2021708400000009
  8.1362312499999998  8.9678693599999999 10.2021708400000009
 11.0948607900000003  8.9678693599999999 10.2021708400000009
 12.5741755600000005  8.9678693599999999 10.2021708400000009
 15.5328050999999991  8.9678693599999999 10.2021708400000009
 17.0121188600000011  8.9678693599999999 10.2021708400000009
 19.9707504399999998  8.9678693599999999 10.2021708400000009
 21.4500641899999991  8.9678693599999999 10.2021708400000009
 24.4086927200000012  8.9678693599999999 10.2021708400000009
 25.8880085099999988  8.9678693599999999 10.2021708400000009
 28.8466380499999993  8.9678693599999999 10.2021708400000009
 30.3259528200000013  8.9678693599999999 10.2021708400000009
 33.2845823700000025  8.9678693599999999 10.2021708400000009
 39.2018404299999972  6.4056206800000002 10.2021708400000009
 37.7225246400000032  8.9678693599999999 10.2021708400000009
 37.7225246400000032  6.4056206800000002 10.2021708400000009
 33.2845823700000025  6.4056206800000002 10.2021708400000009
 37.7225246400000032  3.8433720000000000 10.2021708400000009
 39.2018404299999972  3.8433720000000000 10.2021708400000009
 42.1604720200000003  3.8433720000000000 10.2021708400000009
 44.3528028500000033  6.4056206800000002 10.2021708400000009
  3.6982869300000001  6.4056206800000002 10.2021708400000009
  6.6569164699999996  6.4056206800000002 10.2021708400000009
  8.1362312499999998  6.4056206800000002 10.2021708400000009
 11.0948607900000003  6.4056206800000002 10.2021708400000009
 12.5741755600000005  6.4056206800000002 10.2021708400000009
 15.5328050999999991  6.4056206800000002 10.2021708400000009
 17.0121188600000011  6.4056206800000002 10.2021708400000009
 19.9707504399999998  6.4056206800000002 10.2021708400000009
 21.4500641899999991  6.4056206800000002 10.2021708400000009
 24.4086927200000012  6.4056206800000002 10.2021708400000009
 25.8880085099999988  6.4056206800000002 10.2021708400000009
 28.8466380499999993  6.4056206800000002 10.2021708400000009
 30.3259528200000013  6.4056206800000002 10.2021708400000009
 34.7638981599999966  6.4056206800000002 10.2021708400000009
 42.1604720200000003 19.2168620499999996 10.2021708400000009
