adsorbate = N_linear.xyz, surface = resources/zigzag.vdW.CONTCAR, shift = [0.0, 0.0, 10.0], in-plane rotation = 45
 1.0000000000000000
    45.0924602317194143    0.0000000000000000    0.0000000000000000
     0.0000000000000000   22.2001828173343476    0.0000000000000000
     0.0000000000000000    0.0000000000000000   20.4043416806197726
   B   C   H   N
 160  41  33 163
Cartesian
  1.4793147700000000 15.3734900400000001 10.2021708400000009
 10.3552034000000006  2.5622486800000002 10.2021708400000009
 13.3138329500000001  2.5622486800000002 10.2021708400000009
 14.7931477200000003  2.5622486800000002 10.2021708400000009
 17.7517772600000008  2.5622486800000002 10.2021708400000009
 19.2310920299999992  2.5622486800000002 10.2021708400000009
 22.1897215800000005  2.5622486800000002 10.2021708400000009
 23.6690373700000016  2.5622486800000002 10.2021708400000009
  8.8758886300000004  2.5622486800000002 10.2021708400000009
 26.6276658899999994  2.5622486800000002 10.2021708400000009
 31.0656112299999982  2.5622486800000002 10.2021708400000009
 32.5449249799999976  2.5622486800000002 10.2021708400000009
 35.5035535000000024  2.5622486800000002 10.2021708400000009
 36.9828692999999973  2.5622486800000002 10.2021708400000009
 39.9415008799999995  2.5622486800000002 10.2021708400000009
 41.4208115699999979  2.5622486800000002 10.2021708400000009
  0.0000000000000000  5.1244963400000003 10.2021708400000009
 28.1069796399999987  2.5622486800000002 10.2021708400000009
  1.4793147700000000  5.1244963400000003 10.2021708400000009
  5.9172590899999999  2.5622486800000002 10.2021708400000009
  1.4793147700000000  2.5622486800000002 10.2021708400000009
 10.3552034000000006  0.0000000000000000 10.2021708400000009
 13.3138329500000001  0.0000000000000000 10.2021708400000009
 14.7931477200000003  0.0000000000000000 10.2021708400000009
 17.7517772600000008  0.0000000000000000 10.2021708400000009
 19.2310920299999992  0.0000000000000000 10.2021708400000009
 22.1897215800000005  0.0000000000000000 10.2021708400000009
 23.6690373700000016  0.0000000000000000 10.2021708400000009
  4.4379443199999997  2.5622486800000002 10.2021708400000009
 26.6276658899999994  0.0000000000000000 10.2021708400000009
 31.0656112299999982  0.0000000000000000 10.2021708400000009
 32.5449249799999976  0.0000000000000000 10.2021708400000009
 35.5035535000000024  0.0000000000000000 10.2021708400000009
 36.9828692999999973  0.0000000000000000 10.2021708400000009
 39.9415008799999995  0.0000000000000000 10.2021708400000009
 41.4208115699999979  0.0000000000000000 10.2021708400000009
  0.0000000000000000  2.5622486800000002 10.2021708400000009
 28.1069796399999987  0.0000000000000000 10.2021708400000009
  8.8758886300000004  0.0000000000000000 10.2021708400000009
  4.4379443199999997  5.1244963400000003 10.2021708400000009
  8.8758886300000004  5.1244963400000003 10.2021708400000009
 10.3552034000000006  7.6867450200000000 10.2021708400000009
 13.3138329500000001  7.6867450200000000 10.2021708400000009
 14.7931477200000003  7.6867450200000000 10.2021708400000009
 17.7517772600000008  7.6867450200000000 10.2021708400000009
 19.2310920299999992  7.6867450200000000 10.2021708400000009
 22.1897215800000005  7.6867450200000000 10.2021708400000009
 23.6690373700000016  7.6867450200000000 10.2021708400000009
  8.8758886300000004  7.6867450200000000 10.2021708400000009
 26.6276658899999994  7.6867450200000000 10.2021708400000009
 31.0656112299999982  7.6867450200000000 10.2021708400000009
 32.5449249799999976  7.6867450200000000 10.2021708400000009
 35.5035535000000024  7.6867450200000000 10.2021708400000009
 36.9828692999999973  7.6867450200000000 10.2021708400000009
 39.9415008799999995  7.6867450200000000 10.2021708400000009
 41.4208115699999979  7.6867450200000000 10.2021708400000009
  0.0000000000000000 10.2489936999999998 10.2021708400000009
 28.1069796399999987  7.6867450200000000 10.2021708400000009
  5.9172590899999999  5.1244963400000003 10.2021708400000009
  5.9172590899999999  7.6867450200000000 10.2021708400000009
  1.4793147700000000  7.6867450200000000 10.2021708400000009
 10.3552034000000006  5.1244963400000003 10.2021708400000009
 13.3138329500000001  5.1244963400000003 10.2021708400000009
 14.7931477200000003  5.1244963400000003 10.2021708400000009
 17.7517772600000008  5.1244963400000003 10.2021708400000009
 19.2310920299999992  5.1244963400000003 10.2021708400000009
 22.1897215800000005  5.1244963400000003 10.2021708400000009
 23.6690373700000016  5.1244963400000003 10.2021708400000009
  4.4379443199999997  7.6867450200000000 10.2021708400000009
 26.6276658899999994  5.1244963400000003 10.2021708400000009
 31.0656112299999982  5.1244963400000003 10.2021708400000009
 32.5449249799999976  5.1244963400000003 10.2021708400000009
 35.5035535000000024  5.1244963400000003 10.2021708400000009
 36.9828692999999973  5.1244963400000003 10.2021708400000009
 39.9415008799999995  5.1244963400000003 10.2021708400000009
 41.4208115699999979  5.1244963400000003 10.2021708400000009
  0.0000000000000000  7.6867450200000000 10.2021708400000009
 28.1069796399999987  5.1244963400000003 10.2021708400000009
  5.9172590899999999  0.0000000000000000 10.2021708400000009
  4.4379443199999997  0.0000000000000000 10.2021708400000009
  1.4793147700000000  0.0000000000000000 10.2021708400000009
 41.4208115699999979 15.3734900400000001 10.2021708400000009
 39.9415008799999995 15.3734900400000001 10.2021708400000009
 36.9828692999999973 15.3734900400000001 10.2021708400000009
 35.5035535000000024 15.3734900400000001 10.2021708400000009
 32.5449249799999976 15.3734900400000001 10.2021708400000009
 31.0656112299999982 15.3734900400000001 10.2021708400000009
 28.1069796399999987 15.3734900400000001 10.2021708400000009
  0.0000000000000000 17.9357397499999998 10.2021708400000009
 26.6276658899999994 15.3734900400000001 10.2021708400000009
 22.1897215800000005 15.3734900400000001 10.2021708400000009
 19.2310920299999992 15.3734900400000001 10.2021708400000009
 17.7517772600000008 15.3734900400000001 10.2021708400000009
 14.7931477200000003 15.3734900400000001 10.2021708400000009
 13.3138329500000001 15.3734900400000001 10.2021708400000009
 10.3552034000000006 15.3734900400000001 10.2021708400000009
  8.8758886300000004 15.3734900400000001 10.2021708400000009
 23.6690373700000016 15.3734900400000001 10.2021708400000009
  5.9172590899999999 15.3734900400000001 10.2021708400000009
  1.4793147700000000 17.9357397499999998 10.2021708400000009
  5.9172590899999999 17.9357397499999998 10.2021708400000009
 41.4208115699999979 17.9357397499999998 10.2021708400000009
 39.9415008799999995 17.9357397499999998 10.2021708400000009
 36.9828692999999973 17.9357397499999998 10.2021708400000009
 35.5035535000000024 17.9357397499999998 10.2021708400000009
 32.5449249799999976 17.9357397499999998 10.2021708400000009
 31.0656112299999982 17.9357397499999998 10.2021708400000009
 28.1069796399999987 17.9357397499999998 10.2021708400000009
  4.4379443199999997 17.9357397499999998 10.2021708400000009
 26.6276658899999994 17.9357397499999998 10.2021708400000009
 22.1897215800000005 17.9357397499999998 10.2021708400000009
 19.2310920299999992 17.9357397499999998 10.2021708400000009
 17.7517772600000008 17.9357397499999998 10.2021708400000009
 14.7931477200000003 17.9357397499999998 10.2021708400000009
 13.3138329500000001 17.9357397499999998 10.2021708400000009
 10.3552034000000006 17.9357397499999998 10.2021708400000009
  8.8758886300000004 17.9357397499999998 10.2021708400000009
 23.6690373700000016 17.9357397499999998 10.2021708400000009
  4.4379443199999997 15.3734900400000001 10.2021708400000009
  0.0000000000000000 15.3734900400000001 10.2021708400000009
 41.4208115699999979 12.8112413600000004 10.2021708400000009
 36.9828692999999973 10.2489936999999998 10.2021708400000009
 35.5035535000000024 10.2489936999999998 10.2021708400000009
 32.5449249799999976 10.2489936999999998 10.2021708400000009
 31.0656112299999982 10.2489936999999998 10.2021708400000009
 28.1069796399999987 10.2489936999999998 10.2021708400000009
 26.6276658899999994 10.2489936999999998 10.2021708400000009
 23.6690373700000016 10.2489936999999998 10.2021708400000009
 39.9415008799999995 10.2489936999999998 10.2021708400000009
 22.1897215800000005 10.2489936999999998 10.2021708400000009
 17.7517772600000008 10.2489936999999998 10.2021708400000009
 14.7931477200000003 10.2489936999999998 10.2021708400000009
 13.3138329500000001 10.2489936999999998 10.2021708400000009
 10.3552034000000006 10.2489936999999998 10.2021708400000009
  8.8758886300000004 10.2489936999999998 10.2021708400000009
  5.9172590899999999 10.2489936999999998 10.2021708400000009
  0.0000000000000000  0.0000000000000000 10.2021708400000009
 19.2310920299999992 10.2489936999999998 10.2021708400000009
 41.4208115699999979 10.2489936999999998 10.2021708400000009
  0.0000000000000000 12.8112413600000004 10.2021708400000009
  1.4793147700000000 12.8112413600000004 10.2021708400000009
 39.9415008799999995 12.8112413600000004 10.2021708400000009
 36.9828692999999973 12.8112413600000004 10.2021708400000009
 35.5035535000000024 12.8112413600000004 10.2021708400000009
 32.5449249799999976 12.8112413600000004 10.2021708400000009
 31.0656112299999982 12.8112413600000004 10.2021708400000009
 28.1069796399999987 12.8112413600000004 10.2021708400000009
 26.6276658899999994 12.8112413600000004 10.2021708400000009
 23.6690373700000016 12.8112413600000004 10.2021708400000009
 22.1897215800000005 12.8112413600000004 10.2021708400000009
 19.2310920299999992 12.8112413600000004 10.2021708400000009
 17.7517772600000008 12.8112413600000004 10.2021708400000009
 14.7931477200000003 12.8112413600000004 10.2021708400000009
 13.3138329500000001 12.8112413600000004 10.2021708400000009
 10.3552034000000006 12.8112413600000004 10.2021708400000009
  8.8758886300000004 12.8112413600000004 10.2021708400000009
  5.9172590899999999 12.8112413600000004 10.2021708400000009
  4.4379443199999997 12.8112413600000004 10.2021708400000009
  1.4793147700000000 10.2489936999999998 10.2021708400000009
  4.4379443199999997 10.2489936999999998 10.2021708400000009
 16.4791155232999991  7.1059713502099999 12.5000000000000000
  8.8521486443799997  2.2595321826400001 12.5000000000000000
 11.4316317556999998  5.5949548694900004 12.5000000000000000
 11.4483689732999991  6.9978476522999999 12.5000000000000000
 11.0033301073000001  3.3576619427500001 12.5000000000000000
 10.3936484983999993  4.6141199822400001 12.5000000000000000
 10.2522978529000000  2.1718155864300002 12.5000000000000000
  8.2294845550000009  3.5089474385899999 12.5000000000000000
  8.9854170594300005  4.6867822750799997 12.5000000000000000
 24.6491686944999984 19.5364277309000016 12.5000000000000000
 25.8830700277000005 18.8798083737999995 12.5000000000000000
 25.9319311062999986 17.4794399622999990 12.5000000000000000
 24.7227855814999984 16.7675036416999994 12.5000000000000000
 23.4837082266999992 17.4061342022000005 12.5000000000000000
 23.4488620045000005 18.8153414486000017 12.5000000000000000
 23.1249363881000001 15.1553708913000005 12.5000000000000000
 22.4809318159999982 16.3890318081999986 12.5000000000000000
 22.4103413461000009 13.9408513549999995 12.5000000000000000
 21.0012260236000010 13.9334620892000007 12.5000000000000000
 12.6473038761000005  4.9236559757100000 12.5000000000000000
 20.3702534295000000 15.1935617286000006 12.5000000000000000
 13.8829800473000002  5.6012693330500003 12.5000000000000000
 27.1556501017999992 19.6750630864000016 12.5000000000000000
  8.0461600509100002  0.9936413386850000 12.5000000000000000
 15.2283709066000004  7.7561418933799997 12.5000000000000000
 15.2581259599999992  9.1638500733600008 12.5000000000000000
 16.4821985089000016  9.8547075407199998 12.5000000000000000
 13.3853677922000003  2.5476781959700001 12.5000000000000000
 17.7071620124000013  9.2011711692699993 12.5000000000000000
 17.7060872101000015  7.7970409496000004 12.5000000000000000
 13.9254488805999994  7.0098260411700002 12.5000000000000000
 18.0937443607000006 11.4435269805999997 12.5000000000000000
 18.7250139396000002 10.2029293461999995 12.5000000000000000
 18.8170863136000008 12.6493420323999999 12.5000000000000000
 20.2252470419000012 12.6477015447000003 12.5000000000000000
 25.5270346922999991 14.4119046793999992 12.5000000000000000
 20.8471545270000007 11.3832461274999996 12.5000000000000000
 20.1285643317000016 10.1736834097000006 12.5000000000000000
 12.6809692299000005  7.6726537957199996 12.5000000000000000
 15.7000040585999994 12.2157865805999997 12.5000000000000000
 21.0776218401999991 16.4072893053000008 12.5000000000000000
  8.2780345065999992  0.4029101915460000 11.6077700000000004
  8.2780345065999992  0.4029101915460000 13.3922299999999996
 16.5523364304999987  6.0228463959900003 12.5000000000000000
 18.6406136742000008  7.2439137410800001 12.5000000000000000
 13.9954807361999993  2.6712026795799999 11.6010700000000000
 13.9954807361999993  2.6712026795799999 13.3989300000000000
 12.9361711383000006  1.5543770161699999 12.5000000000000000
 15.0931862322000008 12.0821221856999994 11.6005299999999991
 15.0931933032999996 12.0821292568000001 13.3994700000000009
 16.1288643213999983 13.2178417422999992 12.5000000000000000
 26.1320706095999995 14.5503632583000009 11.6003200000000000
 26.1320706095999995 14.5503632583000009 13.3996800000000000
 25.1064900052999995 13.4058190090000000 12.5000000000000000
 27.2066819982000005 20.3045224719000004 11.6062999999999992
 28.0346474703999995 19.0214913595999988 12.5000000000000000
  6.9712516774899997  1.1987800869700000 12.5000000000000000
 10.7358952516000006  1.2002013716100000 12.5000000000000000
  7.1444645546099999  3.5830593003200000 12.5000000000000000
 27.2066819982000005 20.3045224719000004 13.3937100000000004
 22.4982912874999990 19.3408137109000009 12.5000000000000000
 14.3490270557000006  9.7497446101200005 12.5000000000000000
  8.4872461899499996  5.6520678842100001 12.5000000000000000
 14.7890242503000007  5.0096755156399997 12.5000000000000000
 10.5210832824999994  7.5625007013500003 12.5000000000000000
 18.2611731044000010 13.5761751747999995 12.5000000000000000
 20.6609379562000015  9.2268886429099997 12.5000000000000000
 21.9280096684999997 11.2840956146000000 12.5000000000000000
 19.2891295874999997 15.2882574686999995 12.5000000000000000
 12.6144446240000008  8.7559272423600003 12.5000000000000000
 22.9702143533000012 13.0159556851999998 12.5000000000000000
 26.8834139910000012 16.9568739087999987 12.5000000000000000
 24.6095707148000002 20.6235054120000001 12.5000000000000000
 20.5370952745999986 17.3491131114000012 12.5000000000000000
  2.2189721599999999 14.0923667199999993 10.2021708400000009
  3.6982869300000001 14.0923667199999993 10.2021708400000009
  6.6569164699999996 14.0923667199999993 10.2021708400000009
  8.1362312499999998 14.0923667199999993 10.2021708400000009
 11.0948607900000003 14.0923667199999993 10.2021708400000009
 12.5741755600000005 14.0923667199999993 10.2021708400000009
 15.5328050999999991 14.0923667199999993 10.2021708400000009
 19.9707504399999998 14.0923667199999993 10.2021708400000009
 21.4500641899999991 14.0923667199999993 10.2021708400000009
 24.4086927200000012 14.0923667199999993 10.2021708400000009
 33.2845823700000025 14.0923667199999993 10.2021708400000009
 28.8466380499999993 14.0923667199999993 10.2021708400000009
 30.3259528200000013 14.0923667199999993 10.2021708400000009
 25.8880085099999988 14.0923667199999993 10.2021708400000009
 44.3528028500000033 14.0923667199999993 10.2021708400000009
 17.0121188600000011 14.0923667199999993 10.2021708400000009
 42.1604720200000003 11.5301180399999996 10.2021708400000009
  8.1362312499999998 11.5301180399999996 10.2021708400000009
 37.7225246400000032 11.5301180399999996 10.2021708400000009
  6.6569164699999996 11.5301180399999996 10.2021708400000009
 34.7638981599999966 14.0923667199999993 10.2021708400000009
  3.6982869300000001 11.5301180399999996 10.2021708400000009
  2.2189721599999999 11.5301180399999996 10.2021708400000009
 44.3528028500000033 11.5301180399999996 10.2021708400000009
 11.0948607900000003 11.5301180399999996 10.2021708400000009
 12.5741755600000005 11.5301180399999996 10.2021708400000009
 15.5328050999999991 11.5301180399999996 10.2021708400000009
 17.0121188600000011 11.5301180399999996 10.2021708400000009
 19.9707504399999998 11.5301180399999996 10.2021708400000009
 21.4500641899999991 11.5301180399999996 10.2021708400000009
 24.4086927200000012 11.5301180399999996 10.2021708400000009
 25.8880085099999988 11.5301180399999996 10.2021708400000009
 28.8466380499999993 11.5301180399999996 10.2021708400000009
 30.3259528200000013 11.5301180399999996 10.2021708400000009
 33.2845823700000025 11.5301180399999996 10.2021708400000009
 34.7638981599999966 11.5301180399999996 10.2021708400000009
 39.2018404299999972 11.5301180399999996 10.2021708400000009
 37.7225246400000032 14.0923667199999993 10.2021708400000009
 28.8466380499999993 19.2168620499999996 10.2021708400000009
 42.1604720200000003 14.0923667199999993 10.2021708400000009
  2.2189721599999999 19.2168620499999996 10.2021708400000009
  3.6982869300000001 19.2168620499999996 10.2021708400000009
  6.6569164699999996 19.2168620499999996 10.2021708400000009
  8.1362312499999998 19.2168620499999996 10.2021708400000009
 11.0948607900000003 19.2168620499999996 10.2021708400000009
 12.5741755600000005 19.2168620499999996 10.2021708400000009
 15.5328050999999991 19.2168620499999996 10.2021708400000009
 17.0121188600000011 19.2168620499999996 10.2021708400000009
 19.9707504399999998 19.2168620499999996 10.2021708400000009
 21.4500641899999991 19.2168620499999996 10.2021708400000009
 24.4086927200000012 19.2168620499999996 10.2021708400000009
 25.8880085099999988 19.2168620499999996 10.2021708400000009
 42.1604720200000003  8.9678693599999999 10.2021708400000009
 30.3259528200000013 19.2168620499999996 10.2021708400000009
 33.2845823700000025 19.2168620499999996 10.2021708400000009
 34.7638981599999966 19.2168620499999996 10.2021708400000009
 37.7225246400000032 19.2168620499999996 10.2021708400000009
 44.3528028500000033 19.2168620499999996 10.2021708400000009
 39.2018404299999972 14.0923667199999993 10.2021708400000009
 42.1604720200000003 16.6546143899999990 10.2021708400000009
 37.7225246400000032 16.6546143899999990 10.2021708400000009
 44.3528028500000033 16.6546143899999990 10.2021708400000009
  2.2189721599999999 16.6546143899999990 10.2021708400000009
  3.6982869300000001 16.6546143899999990 10.2021708400000009
  6.6569164699999996 16.6546143899999990 10.2021708400000009
  8.1362312499999998 16.6546143899999990 10.2021708400000009
 11.0948607900000003 16.6546143899999990 10.2021708400000009
 12.5741755600000005 16.6546143899999990 10.2021708400000009
 15.5328050999999991 16.6546143899999990 10.2021708400000009
 17.0121188600000011 16.6546143899999990 10.2021708400000009
 19.9707504399999998 16.6546143899999990 10.2021708400000009
 21.4500641899999991 16.6546143899999990 10.2021708400000009
 24.4086927200000012 16.6546143899999990 10.2021708400000009
 25.8880085099999988 16.6546143899999990 10.2021708400000009
 28.8466380499999993 16.6546143899999990 10.2021708400000009
 30.3259528200000013 16.6546143899999990 10.2021708400000009
 33.2845823700000025 16.6546143899999990 10.2021708400000009
 34.7638981599999966 16.6546143899999990 10.2021708400000009
 39.2018404299999972 16.6546143899999990 10.2021708400000009
 39.2018404299999972  8.9678693599999999 10.2021708400000009
  2.2189721599999999  6.4056206800000002 10.2021708400000009
 34.7638981599999966  8.9678693599999999 10.2021708400000009
 37.7225246400000032  1.2811243400000001 10.2021708400000009
 39.2018404299999972  1.2811243400000001 10.2021708400000009
 42.1604720200000003  1.2811243400000001 10.2021708400000009
 44.3528028500000033  3.8433720000000000 10.2021708400000009
  2.2189721599999999  3.8433720000000000 10.2021708400000009
  3.6982869300000001  3.8433720000000000 10.2021708400000009
  6.6569164699999996  3.8433720000000000 10.2021708400000009
 34.7638981599999966  1.2811243400000001 10.2021708400000009
  8.1362312499999998  3.8433720000000000 10.2021708400000009
 12.5741755600000005  3.8433720000000000 10.2021708400000009
 15.5328050999999991  3.8433720000000000 10.2021708400000009
 17.0121188600000011  3.8433720000000000 10.2021708400000009
 19.9707504399999998  3.8433720000000000 10.2021708400000009
 21.4500641899999991  3.8433720000000000 10.2021708400000009
 24.4086927200000012  3.8433720000000000 10.2021708400000009
 25.8880085099999988  3.8433720000000000 10.2021708400000009
 11.0948607900000003  3.8433720000000000 10.2021708400000009
 33.2845823700000025  1.2811243400000001 10.2021708400000009
 30.3259528200000013  1.2811243400000001 10.2021708400000009
 28.8466380499999993  1.2811243400000001 10.2021708400000009
 24.4791165847000016 15.4092505099999997 12.5000000000000000
 12.3647581485000000  3.5728981758799998 12.5000000000000000
 16.7383408693000000 11.2083220518999997 12.5000000000000000
 39.2018404299999972 19.2168620499999996 10.2021708400000009
 44.3528028500000033  1.2811243400000001 10.2021708400000009
  2.2189721599999999  1.2811243400000001 10.2021708400000009
  3.6982869300000001  1.2811243400000001 10.2021708400000009
  6.6569164699999996  1.2811243400000001 10.2021708400000009
  8.1362312499999998  1.2811243400000001 10.2021708400000009
 11.0948607900000003  1.2811243400000001 10.2021708400000009
 12.5741755600000005  1.2811243400000001 10.2021708400000009
 15.5328050999999991  1.2811243400000001 10.2021708400000009
 17.0121188600000011  1.2811243400000001 10.2021708400000009
 19.9707504399999998  1.2811243400000001 10.2021708400000009
 21.4500641899999991  1.2811243400000001 10.2021708400000009
 24.4086927200000012  1.2811243400000001 10.2021708400000009
 25.8880085099999988  1.2811243400000001 10.2021708400000009
 28.8466380499999993  3.8433720000000000 10.2021708400000009
 30.3259528200000013  3.8433720000000000 10.2021708400000009
 33.2845823700000025  3.8433720000000000 10.2021708400000009
 34.7638981599999966  3.8433720000000000 10.2021708400000009
 42.1604720200000003  6.4056206800000002 10.2021708400000009
 44.3528028500000033  8.9678693599999999 10.2021708400000009
  2.2189721599999999  8.9678693599999999 10.2021708400000009
  3.6982869300000001  8.9678693599999999 10.2021708400000009
  6.6569164699999996  8.9678693599999999 10.2021708400000009
  8.1362312499999998  8.9678693599999999 10.2021708400000009
 11.0948607900000003  8.9678693599999999 10.2021708400000009
 12.5741755600000005  8.9678693599999999 10.2021708400000009
 15.5328050999999991  8.9678693599999999 10.2021708400000009
 17.0121188600000011  8.9678693599999999 10.2021708400000009
 19.9707504399999998  8.9678693599999999 10.2021708400000009
 21.4500641899999991  8.9678693599999999 10.2021708400000009
 24.4086927200000012  8.9678693599999999 10.2021708400000009
 25.8880085099999988  8.9678693599999999 10.2021708400000009
 28.8466380499999993  8.9678693599999999 10.2021708400000009
 30.3259528200000013  8.9678693599999999 10.2021708400000009
 33.2845823700000025  8.9678693599999999 10.2021708400000009
 39.2018404299999972  6.4056206800000002 10.2021708400000009
 37.7225246400000032  8.9678693599999999 10.2021708400000009
 37.7225246400000032  6.4056206800000002 10.2021708400000009
 33.2845823700000025  6.4056206800000002 10.2021708400000009
 37.7225246400000032  3.8433720000000000 10.2021708400000009
 39.2018404299999972  3.8433720000000000 10.2021708400000009
 42.1604720200000003  3.8433720000000000 10.2021708400000009
 44.3528028500000033  6.4056206800000002 10.2021708400000009
  3.6982869300000001  6.4056206800000002 10.2021708400000009
  6.6569164699999996  6.4056206800000002 10.2021708400000009
  8.1362312499999998  6.4056206800000002 10.2021708400000009
 11.0948607900000003  6.4056206800000002 10.2021708400000009
 12.5741755600000005  6.4056206800000002 10.2021708400000009
 15.5328050999999991  6.4056206800000002 10.2021708400000009
 17.0121188600000011  6.4056206800000002 10.2021708400000009
 19.9707504399999998  6.4056206800000002 10.2021708400000009
 21.4500641899999991  6.4056206800000002 10.2021708400000009
 24.4086927200000012  6.4056206800000002 10.2021708400000009
 25.8880085099999988  6.4056206800000002 10.2021708400000009
 28.8466380499999993  6.4056206800000002 10.2021708400000009
 30.3259528200000013  6.4056206800000002 10.2021708400000009
 34.7638981599999966  6.4056206800000002 10.2021708400000009
 42.1604720200000003 19.2168620499999996 10.2021708400000009
