1x1x1           This is a comment line
 0               Automatic generation of k-points
Monkhorst        M use Monkhorst Pack
1 1 1           grid
 .0 .0 .0        shift

