adsorbate = N_linear.xyz, surface = resources/zigzag.vdW.CONTCAR, shift = [0.0, 0.0, 10.0], in-plane rotation = 30
 1.0000000000000000
    45.0924602317194143    0.0000000000000000    0.0000000000000000
     0.0000000000000000   22.2001828173343476    0.0000000000000000
     0.0000000000000000    0.0000000000000000   20.4043416806197726
   B   C   H   N
 160  41  33 163
Cartesian
  1.4793147700000000 15.3734900400000001 10.2021708400000009
 10.3552034000000006  2.5622486800000002 10.2021708400000009
 13.3138329500000001  2.5622486800000002 10.2021708400000009
 14.7931477200000003  2.5622486800000002 10.2021708400000009
 17.7517772600000008  2.5622486800000002 10.2021708400000009
 19.2310920299999992  2.5622486800000002 10.2021708400000009
 22.1897215800000005  2.5622486800000002 10.2021708400000009
 23.6690373700000016  2.5622486800000002 10.2021708400000009
  8.8758886300000004  2.5622486800000002 10.2021708400000009
 26.6276658899999994  2.5622486800000002 10.2021708400000009
 31.0656112299999982  2.5622486800000002 10.2021708400000009
 32.5449249799999976  2.5622486800000002 10.2021708400000009
 35.5035535000000024  2.5622486800000002 10.2021708400000009
 36.9828692999999973  2.5622486800000002 10.2021708400000009
 39.9415008799999995  2.5622486800000002 10.2021708400000009
 41.4208115699999979  2.5622486800000002 10.2021708400000009
  0.0000000000000000  5.1244963400000003 10.2021708400000009
 28.1069796399999987  2.5622486800000002 10.2021708400000009
  1.4793147700000000  5.1244963400000003 10.2021708400000009
  5.9172590899999999  2.5622486800000002 10.2021708400000009
  1.4793147700000000  2.5622486800000002 10.2021708400000009
 10.3552034000000006  0.0000000000000000 10.2021708400000009
 13.3138329500000001  0.0000000000000000 10.2021708400000009
 14.7931477200000003  0.0000000000000000 10.2021708400000009
 17.7517772600000008  0.0000000000000000 10.2021708400000009
 19.2310920299999992  0.0000000000000000 10.2021708400000009
 22.1897215800000005  0.0000000000000000 10.2021708400000009
 23.6690373700000016  0.0000000000000000 10.2021708400000009
  4.4379443199999997  2.5622486800000002 10.2021708400000009
 26.6276658899999994  0.0000000000000000 10.2021708400000009
 31.0656112299999982  0.0000000000000000 10.2021708400000009
 32.5449249799999976  0.0000000000000000 10.2021708400000009
 35.5035535000000024  0.0000000000000000 10.2021708400000009
 36.9828692999999973  0.0000000000000000 10.2021708400000009
 39.9415008799999995  0.0000000000000000 10.2021708400000009
 41.4208115699999979  0.0000000000000000 10.2021708400000009
  0.0000000000000000  2.5622486800000002 10.2021708400000009
 28.1069796399999987  0.0000000000000000 10.2021708400000009
  8.8758886300000004  0.0000000000000000 10.2021708400000009
  4.4379443199999997  5.1244963400000003 10.2021708400000009
  8.8758886300000004  5.1244963400000003 10.2021708400000009
 10.3552034000000006  7.6867450200000000 10.2021708400000009
 13.3138329500000001  7.6867450200000000 10.2021708400000009
 14.7931477200000003  7.6867450200000000 10.2021708400000009
 17.7517772600000008  7.6867450200000000 10.2021708400000009
 19.2310920299999992  7.6867450200000000 10.2021708400000009
 22.1897215800000005  7.6867450200000000 10.2021708400000009
 23.6690373700000016  7.6867450200000000 10.2021708400000009
  8.8758886300000004  7.6867450200000000 10.2021708400000009
 26.6276658899999994  7.6867450200000000 10.2021708400000009
 31.0656112299999982  7.6867450200000000 10.2021708400000009
 32.5449249799999976  7.6867450200000000 10.2021708400000009
 35.5035535000000024  7.6867450200000000 10.2021708400000009
 36.9828692999999973  7.6867450200000000 10.2021708400000009
 39.9415008799999995  7.6867450200000000 10.2021708400000009
 41.4208115699999979  7.6867450200000000 10.2021708400000009
  0.0000000000000000 10.2489936999999998 10.2021708400000009
 28.1069796399999987  7.6867450200000000 10.2021708400000009
  5.9172590899999999  5.1244963400000003 10.2021708400000009
  5.9172590899999999  7.6867450200000000 10.2021708400000009
  1.4793147700000000  7.6867450200000000 10.2021708400000009
 10.3552034000000006  5.1244963400000003 10.2021708400000009
 13.3138329500000001  5.1244963400000003 10.2021708400000009
 14.7931477200000003  5.1244963400000003 10.2021708400000009
 17.7517772600000008  5.1244963400000003 10.2021708400000009
 19.2310920299999992  5.1244963400000003 10.2021708400000009
 22.1897215800000005  5.1244963400000003 10.2021708400000009
 23.6690373700000016  5.1244963400000003 10.2021708400000009
  4.4379443199999997  7.6867450200000000 10.2021708400000009
 26.6276658899999994  5.1244963400000003 10.2021708400000009
 31.0656112299999982  5.1244963400000003 10.2021708400000009
 32.5449249799999976  5.1244963400000003 10.2021708400000009
 35.5035535000000024  5.1244963400000003 10.2021708400000009
 36.9828692999999973  5.1244963400000003 10.2021708400000009
 39.9415008799999995  5.1244963400000003 10.2021708400000009
 41.4208115699999979  5.1244963400000003 10.2021708400000009
  0.0000000000000000  7.6867450200000000 10.2021708400000009
 28.1069796399999987  5.1244963400000003 10.2021708400000009
  5.9172590899999999  0.0000000000000000 10.2021708400000009
  4.4379443199999997  0.0000000000000000 10.2021708400000009
  1.4793147700000000  0.0000000000000000 10.2021708400000009
 41.4208115699999979 15.3734900400000001 10.2021708400000009
 39.9415008799999995 15.3734900400000001 10.2021708400000009
 36.9828692999999973 15.3734900400000001 10.2021708400000009
 35.5035535000000024 15.3734900400000001 10.2021708400000009
 32.5449249799999976 15.3734900400000001 10.2021708400000009
 31.0656112299999982 15.3734900400000001 10.2021708400000009
 28.1069796399999987 15.3734900400000001 10.2021708400000009
  0.0000000000000000 17.9357397499999998 10.2021708400000009
 26.6276658899999994 15.3734900400000001 10.2021708400000009
 22.1897215800000005 15.3734900400000001 10.2021708400000009
 19.2310920299999992 15.3734900400000001 10.2021708400000009
 17.7517772600000008 15.3734900400000001 10.2021708400000009
 14.7931477200000003 15.3734900400000001 10.2021708400000009
 13.3138329500000001 15.3734900400000001 10.2021708400000009
 10.3552034000000006 15.3734900400000001 10.2021708400000009
  8.8758886300000004 15.3734900400000001 10.2021708400000009
 23.6690373700000016 15.3734900400000001 10.2021708400000009
  5.9172590899999999 15.3734900400000001 10.2021708400000009
  1.4793147700000000 17.9357397499999998 10.2021708400000009
  5.9172590899999999 17.9357397499999998 10.2021708400000009
 41.4208115699999979 17.9357397499999998 10.2021708400000009
 39.9415008799999995 17.9357397499999998 10.2021708400000009
 36.9828692999999973 17.9357397499999998 10.2021708400000009
 35.5035535000000024 17.9357397499999998 10.2021708400000009
 32.5449249799999976 17.9357397499999998 10.2021708400000009
 31.0656112299999982 17.9357397499999998 10.2021708400000009
 28.1069796399999987 17.9357397499999998 10.2021708400000009
  4.4379443199999997 17.9357397499999998 10.2021708400000009
 26.6276658899999994 17.9357397499999998 10.2021708400000009
 22.1897215800000005 17.9357397499999998 10.2021708400000009
 19.2310920299999992 17.9357397499999998 10.2021708400000009
 17.7517772600000008 17.9357397499999998 10.2021708400000009
 14.7931477200000003 17.9357397499999998 10.2021708400000009
 13.3138329500000001 17.9357397499999998 10.2021708400000009
 10.3552034000000006 17.9357397499999998 10.2021708400000009
  8.8758886300000004 17.9357397499999998 10.2021708400000009
 23.6690373700000016 17.9357397499999998 10.2021708400000009
  4.4379443199999997 15.3734900400000001 10.2021708400000009
  0.0000000000000000 15.3734900400000001 10.2021708400000009
 41.4208115699999979 12.8112413600000004 10.2021708400000009
 36.9828692999999973 10.2489936999999998 10.2021708400000009
 35.5035535000000024 10.2489936999999998 10.2021708400000009
 32.5449249799999976 10.2489936999999998 10.2021708400000009
 31.0656112299999982 10.2489936999999998 10.2021708400000009
 28.1069796399999987 10.2489936999999998 10.2021708400000009
 26.6276658899999994 10.2489936999999998 10.2021708400000009
 23.6690373700000016 10.2489936999999998 10.2021708400000009
 39.9415008799999995 10.2489936999999998 10.2021708400000009
 22.1897215800000005 10.2489936999999998 10.2021708400000009
 17.7517772600000008 10.2489936999999998 10.2021708400000009
 14.7931477200000003 10.2489936999999998 10.2021708400000009
 13.3138329500000001 10.2489936999999998 10.2021708400000009
 10.3552034000000006 10.2489936999999998 10.2021708400000009
  8.8758886300000004 10.2489936999999998 10.2021708400000009
  5.9172590899999999 10.2489936999999998 10.2021708400000009
  0.0000000000000000  0.0000000000000000 10.2021708400000009
 19.2310920299999992 10.2489936999999998 10.2021708400000009
 41.4208115699999979 10.2489936999999998 10.2021708400000009
  0.0000000000000000 12.8112413600000004 10.2021708400000009
  1.4793147700000000 12.8112413600000004 10.2021708400000009
 39.9415008799999995 12.8112413600000004 10.2021708400000009
 36.9828692999999973 12.8112413600000004 10.2021708400000009
 35.5035535000000024 12.8112413600000004 10.2021708400000009
 32.5449249799999976 12.8112413600000004 10.2021708400000009
 31.0656112299999982 12.8112413600000004 10.2021708400000009
 28.1069796399999987 12.8112413600000004 10.2021708400000009
 26.6276658899999994 12.8112413600000004 10.2021708400000009
 23.6690373700000016 12.8112413600000004 10.2021708400000009
 22.1897215800000005 12.8112413600000004 10.2021708400000009
 19.2310920299999992 12.8112413600000004 10.2021708400000009
 17.7517772600000008 12.8112413600000004 10.2021708400000009
 14.7931477200000003 12.8112413600000004 10.2021708400000009
 13.3138329500000001 12.8112413600000004 10.2021708400000009
 10.3552034000000006 12.8112413600000004 10.2021708400000009
  8.8758886300000004 12.8112413600000004 10.2021708400000009
  5.9172590899999999 12.8112413600000004 10.2021708400000009
  4.4379443199999997 12.8112413600000004 10.2021708400000009
  1.4793147700000000 10.2489936999999998 10.2021708400000009
  4.4379443199999997 10.2489936999999998 10.2021708400000009
 15.6748125484000003  7.5010869943399996 12.5000000000000000
  7.0533775063000004  4.7937905214800001 12.5000000000000000
 10.4082377769000001  7.3479420805600002 12.5000000000000000
 10.7875000579000009  8.6987005403400008 12.5000000000000000
  9.4154761342899995  5.2977356853100002 12.5000000000000000
  9.1517641924599999  6.6691781671300001 12.5000000000000000
  8.3831150617700008  4.3466775146699996 12.5000000000000000
  6.7753026447500000  6.1617903099899998 12.5000000000000000
  7.8103234613800003  7.1038416687000003 12.5000000000000000
 26.7837167592999990 17.3934204848000000 12.5000000000000000
 27.8056283290999993 16.4398177250000010 12.5000000000000000
 27.4903824917000001 15.0745195322000001 12.5000000000000000
 26.1381749230000011 14.6997917437000005 12.5000000000000000
 25.1066078570000002 15.6373583133000000 12.5000000000000000
 25.4376786649000017 17.0075668530999984 12.5000000000000000
 24.1775204614999986 13.5561448871000003 12.5000000000000000
 23.8747547536000013 14.9144504759000007 12.5000000000000000
 23.1729338684000012 12.5679599068000005 12.5000000000000000
 21.8099205034999990 12.9255283063000004 12.5000000000000000
 11.4087419355000002  6.3848780445499997 12.5000000000000000
 21.5265855646000013 14.3059988160000007 12.5000000000000000
 12.7776927042999997  6.7195857599600002 12.5000000000000000
 29.2406733539999983 16.8786068307000008 12.5000000000000000
  5.9472156487400003  3.7796390601700001 12.5000000000000000
 14.6349625402000001  8.4528200408299998 12.5000000000000000
 15.0280454016000000  9.8048605532599993 12.5000000000000000
 16.3892157599000008 10.1553643349999998 12.5000000000000000
 11.5067086334000006  3.8988347464299999 12.5000000000000000
 17.4032919845000009  9.2070527911699998 12.5000000000000000
 17.0388381626000012  7.8510453278299996 12.5000000000000000
 13.1832757493999999  8.0691553192499992 12.5000000000000000
 18.3570662487000007 11.2729473068000008 12.5000000000000000
 18.6457355432000007  9.9112374220799992 12.5000000000000000
 19.3678488225000009 12.2504605335000001 12.5000000000000000
 20.7276030479999989 11.8844171289999991 12.5000000000000000
 26.3053460357999995 12.2163028827000009 12.5000000000000000
 21.0010544058000015 10.5020854839000002 12.5000000000000000
 19.9938917101000015  9.5197224444900002 12.5000000000000000
 12.1527531609999997  9.0314928005800006 12.5000000000000000
 16.2447661616999994 12.6384383782000000 12.5000000000000000
 22.5239867935999989 15.2952892118000001 12.5000000000000000
  6.0182967025299998  3.1490230635500001 11.6077700000000004
  6.0182967025299998  3.1490230635500001 13.3922299999999996
 15.4652051473000007  6.4359176626799997 12.5000000000000000
 17.7983615537000013  7.0748922248200001 12.5000000000000000
 12.1280029719000009  3.8602413857500002 11.6010700000000000
 12.1280029719000009  3.8602413857500002 13.3989300000000000
 10.8157327214999999  3.0556401325799998 12.5000000000000000
 15.6240302602999996 12.6663844975999993 11.6005299999999991
 15.6240389205000003 12.6663894976000009 13.3994700000000009
 16.9183643255000007 13.4953521345999992 12.5000000000000000
 26.9256015712999996 12.1934487815000008 11.6003200000000000
 26.9256015712999996 12.1934487815000008 13.3996800000000000
 25.6387369288999984 11.3533437245000002 12.5000000000000000
 29.4528824578000012 17.4734098811000003 11.6062999999999992
 29.9205628033999993 16.0198037609000004 12.5000000000000000
  4.9620277048999997  4.2559946339000003 12.5000000000000000
  8.5987620154400002  3.2830060344300001 12.5000000000000000
  5.7464353656200000  6.5142007117000000 12.5000000000000000
 29.4528824578000012 17.4734098811000003 13.3937100000000004
 24.6555000888000002 17.7611598874999999 12.5000000000000000
 14.3015639559000007 10.6060833281000004 12.5000000000000000
  7.5789616522500003  8.1651720770500003 12.5000000000000000
 13.4997484529000005  5.9136485176100004 12.5000000000000000
 10.0379538239000006  9.4841127003099999 12.5000000000000000
 19.0707599654000006 13.2895935283999993 12.5000000000000000
 20.2630766256999983  8.4674004939100005 12.5000000000000000
 22.0194182603999984 10.1265675473000005 12.5000000000000000
 20.5068091852000016 14.6772833175000006 12.5000000000000000
 12.3688671250999995 10.0950724346000005 12.5000000000000000
 23.4743490514000008 11.5296734957000009 12.5000000000000000
 28.2741943364000008 14.3234975936000009 12.5000000000000000
 27.0268244553000017 18.4537056033999995 12.5000000000000000
 22.2456401622000008 16.3449197196000000 12.5000000000000000
  2.2189721599999999 14.0923667199999993 10.2021708400000009
  3.6982869300000001 14.0923667199999993 10.2021708400000009
  6.6569164699999996 14.0923667199999993 10.2021708400000009
  8.1362312499999998 14.0923667199999993 10.2021708400000009
 11.0948607900000003 14.0923667199999993 10.2021708400000009
 12.5741755600000005 14.0923667199999993 10.2021708400000009
 15.5328050999999991 14.0923667199999993 10.2021708400000009
 19.9707504399999998 14.0923667199999993 10.2021708400000009
 21.4500641899999991 14.0923667199999993 10.2021708400000009
 24.4086927200000012 14.0923667199999993 10.2021708400000009
 33.2845823700000025 14.0923667199999993 10.2021708400000009
 28.8466380499999993 14.0923667199999993 10.2021708400000009
 30.3259528200000013 14.0923667199999993 10.2021708400000009
 25.8880085099999988 14.0923667199999993 10.2021708400000009
 44.3528028500000033 14.0923667199999993 10.2021708400000009
 17.0121188600000011 14.0923667199999993 10.2021708400000009
 42.1604720200000003 11.5301180399999996 10.2021708400000009
  8.1362312499999998 11.5301180399999996 10.2021708400000009
 37.7225246400000032 11.5301180399999996 10.2021708400000009
  6.6569164699999996 11.5301180399999996 10.2021708400000009
 34.7638981599999966 14.0923667199999993 10.2021708400000009
  3.6982869300000001 11.5301180399999996 10.2021708400000009
  2.2189721599999999 11.5301180399999996 10.2021708400000009
 44.3528028500000033 11.5301180399999996 10.2021708400000009
 11.0948607900000003 11.5301180399999996 10.2021708400000009
 12.5741755600000005 11.5301180399999996 10.2021708400000009
 15.5328050999999991 11.5301180399999996 10.2021708400000009
 17.0121188600000011 11.5301180399999996 10.2021708400000009
 19.9707504399999998 11.5301180399999996 10.2021708400000009
 21.4500641899999991 11.5301180399999996 10.2021708400000009
 24.4086927200000012 11.5301180399999996 10.2021708400000009
 25.8880085099999988 11.5301180399999996 10.2021708400000009
 28.8466380499999993 11.5301180399999996 10.2021708400000009
 30.3259528200000013 11.5301180399999996 10.2021708400000009
 33.2845823700000025 11.5301180399999996 10.2021708400000009
 34.7638981599999966 11.5301180399999996 10.2021708400000009
 39.2018404299999972 11.5301180399999996 10.2021708400000009
 37.7225246400000032 14.0923667199999993 10.2021708400000009
 28.8466380499999993 19.2168620499999996 10.2021708400000009
 42.1604720200000003 14.0923667199999993 10.2021708400000009
  2.2189721599999999 19.2168620499999996 10.2021708400000009
  3.6982869300000001 19.2168620499999996 10.2021708400000009
  6.6569164699999996 19.2168620499999996 10.2021708400000009
  8.1362312499999998 19.2168620499999996 10.2021708400000009
 11.0948607900000003 19.2168620499999996 10.2021708400000009
 12.5741755600000005 19.2168620499999996 10.2021708400000009
 15.5328050999999991 19.2168620499999996 10.2021708400000009
 17.0121188600000011 19.2168620499999996 10.2021708400000009
 19.9707504399999998 19.2168620499999996 10.2021708400000009
 21.4500641899999991 19.2168620499999996 10.2021708400000009
 24.4086927200000012 19.2168620499999996 10.2021708400000009
 25.8880085099999988 19.2168620499999996 10.2021708400000009
 42.1604720200000003  8.9678693599999999 10.2021708400000009
 30.3259528200000013 19.2168620499999996 10.2021708400000009
 33.2845823700000025 19.2168620499999996 10.2021708400000009
 34.7638981599999966 19.2168620499999996 10.2021708400000009
 37.7225246400000032 19.2168620499999996 10.2021708400000009
 44.3528028500000033 19.2168620499999996 10.2021708400000009
 39.2018404299999972 14.0923667199999993 10.2021708400000009
 42.1604720200000003 16.6546143899999990 10.2021708400000009
 37.7225246400000032 16.6546143899999990 10.2021708400000009
 44.3528028500000033 16.6546143899999990 10.2021708400000009
  2.2189721599999999 16.6546143899999990 10.2021708400000009
  3.6982869300000001 16.6546143899999990 10.2021708400000009
  6.6569164699999996 16.6546143899999990 10.2021708400000009
  8.1362312499999998 16.6546143899999990 10.2021708400000009
 11.0948607900000003 16.6546143899999990 10.2021708400000009
 12.5741755600000005 16.6546143899999990 10.2021708400000009
 15.5328050999999991 16.6546143899999990 10.2021708400000009
 17.0121188600000011 16.6546143899999990 10.2021708400000009
 19.9707504399999998 16.6546143899999990 10.2021708400000009
 21.4500641899999991 16.6546143899999990 10.2021708400000009
 24.4086927200000012 16.6546143899999990 10.2021708400000009
 25.8880085099999988 16.6546143899999990 10.2021708400000009
 28.8466380499999993 16.6546143899999990 10.2021708400000009
 30.3259528200000013 16.6546143899999990 10.2021708400000009
 33.2845823700000025 16.6546143899999990 10.2021708400000009
 34.7638981599999966 16.6546143899999990 10.2021708400000009
 39.2018404299999972 16.6546143899999990 10.2021708400000009
 39.2018404299999972  8.9678693599999999 10.2021708400000009
  2.2189721599999999  6.4056206800000002 10.2021708400000009
 34.7638981599999966  8.9678693599999999 10.2021708400000009
 37.7225246400000032  1.2811243400000001 10.2021708400000009
 39.2018404299999972  1.2811243400000001 10.2021708400000009
 42.1604720200000003  1.2811243400000001 10.2021708400000009
 44.3528028500000033  3.8433720000000000 10.2021708400000009
  2.2189721599999999  3.8433720000000000 10.2021708400000009
  3.6982869300000001  3.8433720000000000 10.2021708400000009
  6.6569164699999996  3.8433720000000000 10.2021708400000009
 34.7638981599999966  1.2811243400000001 10.2021708400000009
  8.1362312499999998  3.8433720000000000 10.2021708400000009
 12.5741755600000005  3.8433720000000000 10.2021708400000009
 15.5328050999999991  3.8433720000000000 10.2021708400000009
 17.0121188600000011  3.8433720000000000 10.2021708400000009
 19.9707504399999998  3.8433720000000000 10.2021708400000009
 21.4500641899999991  3.8433720000000000 10.2021708400000009
 24.4086927200000012  3.8433720000000000 10.2021708400000009
 25.8880085099999988  3.8433720000000000 10.2021708400000009
 11.0948607900000003  3.8433720000000000 10.2021708400000009
 33.2845823700000025  1.2811243400000001 10.2021708400000009
 30.3259528200000013  1.2811243400000001 10.2021708400000009
 28.8466380499999993  1.2811243400000001 10.2021708400000009
 25.5512669672999984 13.4508861421999999 12.5000000000000000
 10.7862218762000008  5.1532744160500004 12.5000000000000000
 16.9869714963000007 11.3965610291000008 12.5000000000000000
 39.2018404299999972 19.2168620499999996 10.2021708400000009
 44.3528028500000033  1.2811243400000001 10.2021708400000009
  2.2189721599999999  1.2811243400000001 10.2021708400000009
  3.6982869300000001  1.2811243400000001 10.2021708400000009
  6.6569164699999996  1.2811243400000001 10.2021708400000009
  8.1362312499999998  1.2811243400000001 10.2021708400000009
 11.0948607900000003  1.2811243400000001 10.2021708400000009
 12.5741755600000005  1.2811243400000001 10.2021708400000009
 15.5328050999999991  1.2811243400000001 10.2021708400000009
 17.0121188600000011  1.2811243400000001 10.2021708400000009
 19.9707504399999998  1.2811243400000001 10.2021708400000009
 21.4500641899999991  1.2811243400000001 10.2021708400000009
 24.4086927200000012  1.2811243400000001 10.2021708400000009
 25.8880085099999988  1.2811243400000001 10.2021708400000009
 28.8466380499999993  3.8433720000000000 10.2021708400000009
 30.3259528200000013  3.8433720000000000 10.2021708400000009
 33.2845823700000025  3.8433720000000000 10.2021708400000009
 34.7638981599999966  3.8433720000000000 10.2021708400000009
 42.1604720200000003  6.4056206800000002 10.2021708400000009
 44.3528028500000033  8.9678693599999999 10.2021708400000009
  2.2189721599999999  8.9678693599999999 10.2021708400000009
  3.6982869300000001  8.9678693599999999 10.2021708400000009
  6.6569164699999996  8.9678693599999999 10.2021708400000009
  8.1362312499999998  8.9678693599999999 10.2021708400000009
 11.0948607900000003  8.9678693599999999 10.2021708400000009
 12.5741755600000005  8.9678693599999999 10.2021708400000009
 15.5328050999999991  8.9678693599999999 10.2021708400000009
 17.0121188600000011  8.9678693599999999 10.2021708400000009
 19.9707504399999998  8.9678693599999999 10.2021708400000009
 21.4500641899999991  8.9678693599999999 10.2021708400000009
 24.4086927200000012  8.9678693599999999 10.2021708400000009
 25.8880085099999988  8.9678693599999999 10.2021708400000009
 28.8466380499999993  8.9678693599999999 10.2021708400000009
 30.3259528200000013  8.9678693599999999 10.2021708400000009
 33.2845823700000025  8.9678693599999999 10.2021708400000009
 39.2018404299999972  6.4056206800000002 10.2021708400000009
 37.7225246400000032  8.9678693599999999 10.2021708400000009
 37.7225246400000032  6.4056206800000002 10.2021708400000009
 33.2845823700000025  6.4056206800000002 10.2021708400000009
 37.7225246400000032  3.8433720000000000 10.2021708400000009
 39.2018404299999972  3.8433720000000000 10.2021708400000009
 42.1604720200000003  3.8433720000000000 10.2021708400000009
 44.3528028500000033  6.4056206800000002 10.2021708400000009
  3.6982869300000001  6.4056206800000002 10.2021708400000009
  6.6569164699999996  6.4056206800000002 10.2021708400000009
  8.1362312499999998  6.4056206800000002 10.2021708400000009
 11.0948607900000003  6.4056206800000002 10.2021708400000009
 12.5741755600000005  6.4056206800000002 10.2021708400000009
 15.5328050999999991  6.4056206800000002 10.2021708400000009
 17.0121188600000011  6.4056206800000002 10.2021708400000009
 19.9707504399999998  6.4056206800000002 10.2021708400000009
 21.4500641899999991  6.4056206800000002 10.2021708400000009
 24.4086927200000012  6.4056206800000002 10.2021708400000009
 25.8880085099999988  6.4056206800000002 10.2021708400000009
 28.8466380499999993  6.4056206800000002 10.2021708400000009
 30.3259528200000013  6.4056206800000002 10.2021708400000009
 34.7638981599999966  6.4056206800000002 10.2021708400000009
 42.1604720200000003 19.2168620499999996 10.2021708400000009
