adsorbate = C_arc.xyz, surface = resources/zigzag.vdW.CONTCAR, shift = [0.0, 0.0, 10.0], in-plane rotation = 0
 1.0000000000000000
    45.0924602317194143    0.0000000000000000    0.0000000000000000
     0.0000000000000000   22.2001828173343476    0.0000000000000000
     0.0000000000000000    0.0000000000000000   20.4043416806197726
   B   C   H   N
 160  47  42 160
Cartesian
 32.5449249799999976 12.8112413600000004 10.2021708400000009
 28.1069796399999987  0.0000000000000000 10.2021708400000009
 31.0656112299999982  0.0000000000000000 10.2021708400000009
 32.5449249799999976  0.0000000000000000 10.2021708400000009
 35.5035535000000024  0.0000000000000000 10.2021708400000009
 36.9828692999999973  0.0000000000000000 10.2021708400000009
 39.9415008799999995  0.0000000000000000 10.2021708400000009
 41.4208115699999979  0.0000000000000000 10.2021708400000009
 26.6276658899999994  0.0000000000000000 10.2021708400000009
  0.0000000000000000  2.5622486800000002 10.2021708400000009
  4.4379443199999997  2.5622486800000002 10.2021708400000009
  5.9172590899999999  2.5622486800000002 10.2021708400000009
  8.8758886300000004  2.5622486800000002 10.2021708400000009
 10.3552034000000006  2.5622486800000002 10.2021708400000009
 13.3138329500000001  2.5622486800000002 10.2021708400000009
 14.7931477200000003  2.5622486800000002 10.2021708400000009
 17.7517772600000008  2.5622486800000002 10.2021708400000009
  1.4793147700000000  2.5622486800000002 10.2021708400000009
 19.2310920299999992  2.5622486800000002 10.2021708400000009
 23.6690373700000016  0.0000000000000000 10.2021708400000009
 19.2310920299999992  0.0000000000000000 10.2021708400000009
 36.9828692999999973  7.6867450200000000 10.2021708400000009
 35.5035535000000024  7.6867450200000000 10.2021708400000009
 32.5449249799999976  7.6867450200000000 10.2021708400000009
 31.0656112299999982  7.6867450200000000 10.2021708400000009
 28.1069796399999987  7.6867450200000000 10.2021708400000009
 26.6276658899999994  7.6867450200000000 10.2021708400000009
 23.6690373700000016  7.6867450200000000 10.2021708400000009
 22.1897215800000005  0.0000000000000000 10.2021708400000009
  0.0000000000000000  0.0000000000000000 10.2021708400000009
  4.4379443199999997  0.0000000000000000 10.2021708400000009
  5.9172590899999999  0.0000000000000000 10.2021708400000009
  8.8758886300000004  0.0000000000000000 10.2021708400000009
 10.3552034000000006  0.0000000000000000 10.2021708400000009
 13.3138329500000001  0.0000000000000000 10.2021708400000009
 14.7931477200000003  0.0000000000000000 10.2021708400000009
 17.7517772600000008  0.0000000000000000 10.2021708400000009
  1.4793147700000000  0.0000000000000000 10.2021708400000009
 39.9415008799999995  7.6867450200000000 10.2021708400000009
 22.1897215800000005  2.5622486800000002 10.2021708400000009
 26.6276658899999994  2.5622486800000002 10.2021708400000009
 28.1069796399999987  5.1244963400000003 10.2021708400000009
 31.0656112299999982  5.1244963400000003 10.2021708400000009
 32.5449249799999976  5.1244963400000003 10.2021708400000009
 35.5035535000000024  5.1244963400000003 10.2021708400000009
 36.9828692999999973  5.1244963400000003 10.2021708400000009
 39.9415008799999995  5.1244963400000003 10.2021708400000009
 41.4208115699999979  5.1244963400000003 10.2021708400000009
 26.6276658899999994  5.1244963400000003 10.2021708400000009
  0.0000000000000000  7.6867450200000000 10.2021708400000009
  4.4379443199999997  7.6867450200000000 10.2021708400000009
  5.9172590899999999  7.6867450200000000 10.2021708400000009
  8.8758886300000004  7.6867450200000000 10.2021708400000009
 10.3552034000000006  7.6867450200000000 10.2021708400000009
 13.3138329500000001  7.6867450200000000 10.2021708400000009
 14.7931477200000003  7.6867450200000000 10.2021708400000009
 17.7517772600000008  7.6867450200000000 10.2021708400000009
  1.4793147700000000  7.6867450200000000 10.2021708400000009
 23.6690373700000016  2.5622486800000002 10.2021708400000009
 23.6690373700000016  5.1244963400000003 10.2021708400000009
 19.2310920299999992  5.1244963400000003 10.2021708400000009
 28.1069796399999987  2.5622486800000002 10.2021708400000009
 31.0656112299999982  2.5622486800000002 10.2021708400000009
 32.5449249799999976  2.5622486800000002 10.2021708400000009
 35.5035535000000024  2.5622486800000002 10.2021708400000009
 36.9828692999999973  2.5622486800000002 10.2021708400000009
 39.9415008799999995  2.5622486800000002 10.2021708400000009
 41.4208115699999979  2.5622486800000002 10.2021708400000009
 22.1897215800000005  5.1244963400000003 10.2021708400000009
  0.0000000000000000  5.1244963400000003 10.2021708400000009
  4.4379443199999997  5.1244963400000003 10.2021708400000009
  5.9172590899999999  5.1244963400000003 10.2021708400000009
  8.8758886300000004  5.1244963400000003 10.2021708400000009
 10.3552034000000006  5.1244963400000003 10.2021708400000009
 13.3138329500000001  5.1244963400000003 10.2021708400000009
 14.7931477200000003  5.1244963400000003 10.2021708400000009
 17.7517772600000008  5.1244963400000003 10.2021708400000009
  1.4793147700000000  5.1244963400000003 10.2021708400000009
 41.4208115699999979  7.6867450200000000 10.2021708400000009
  0.0000000000000000 10.2489936999999998 10.2021708400000009
  1.4793147700000000 10.2489936999999998 10.2021708400000009
 41.4208115699999979 15.3734900400000001 10.2021708400000009
 39.9415008799999995 15.3734900400000001 10.2021708400000009
 36.9828692999999973 15.3734900400000001 10.2021708400000009
 35.5035535000000024 15.3734900400000001 10.2021708400000009
 32.5449249799999976 15.3734900400000001 10.2021708400000009
 31.0656112299999982 15.3734900400000001 10.2021708400000009
 28.1069796399999987 15.3734900400000001 10.2021708400000009
  0.0000000000000000 17.9357397499999998 10.2021708400000009
 26.6276658899999994 15.3734900400000001 10.2021708400000009
 22.1897215800000005 15.3734900400000001 10.2021708400000009
 19.2310920299999992 15.3734900400000001 10.2021708400000009
 17.7517772600000008 15.3734900400000001 10.2021708400000009
 14.7931477200000003 15.3734900400000001 10.2021708400000009
 13.3138329500000001 15.3734900400000001 10.2021708400000009
 10.3552034000000006 15.3734900400000001 10.2021708400000009
  8.8758886300000004 15.3734900400000001 10.2021708400000009
 23.6690373700000016 15.3734900400000001 10.2021708400000009
  5.9172590899999999 15.3734900400000001 10.2021708400000009
  1.4793147700000000 17.9357397499999998 10.2021708400000009
  5.9172590899999999 17.9357397499999998 10.2021708400000009
 41.4208115699999979 17.9357397499999998 10.2021708400000009
 39.9415008799999995 17.9357397499999998 10.2021708400000009
 36.9828692999999973 17.9357397499999998 10.2021708400000009
 35.5035535000000024 17.9357397499999998 10.2021708400000009
 32.5449249799999976 17.9357397499999998 10.2021708400000009
 31.0656112299999982 17.9357397499999998 10.2021708400000009
 28.1069796399999987 17.9357397499999998 10.2021708400000009
  4.4379443199999997 17.9357397499999998 10.2021708400000009
 26.6276658899999994 17.9357397499999998 10.2021708400000009
 22.1897215800000005 17.9357397499999998 10.2021708400000009
 19.2310920299999992 17.9357397499999998 10.2021708400000009
 17.7517772600000008 17.9357397499999998 10.2021708400000009
 14.7931477200000003 17.9357397499999998 10.2021708400000009
 13.3138329500000001 17.9357397499999998 10.2021708400000009
 10.3552034000000006 17.9357397499999998 10.2021708400000009
  8.8758886300000004 17.9357397499999998 10.2021708400000009
 23.6690373700000016 17.9357397499999998 10.2021708400000009
  4.4379443199999997 15.3734900400000001 10.2021708400000009
  1.4793147700000000 15.3734900400000001 10.2021708400000009
  0.0000000000000000 15.3734900400000001 10.2021708400000009
 36.9828692999999973 10.2489936999999998 10.2021708400000009
 35.5035535000000024 10.2489936999999998 10.2021708400000009
 32.5449249799999976 10.2489936999999998 10.2021708400000009
 31.0656112299999982 10.2489936999999998 10.2021708400000009
 28.1069796399999987 10.2489936999999998 10.2021708400000009
 26.6276658899999994 10.2489936999999998 10.2021708400000009
 23.6690373700000016 10.2489936999999998 10.2021708400000009
 39.9415008799999995 10.2489936999999998 10.2021708400000009
 22.1897215800000005 10.2489936999999998 10.2021708400000009
 17.7517772600000008 10.2489936999999998 10.2021708400000009
 14.7931477200000003 10.2489936999999998 10.2021708400000009
 13.3138329500000001 10.2489936999999998 10.2021708400000009
 10.3552034000000006 10.2489936999999998 10.2021708400000009
  8.8758886300000004 10.2489936999999998 10.2021708400000009
  5.9172590899999999 10.2489936999999998 10.2021708400000009
  4.4379443199999997 10.2489936999999998 10.2021708400000009
 19.2310920299999992 10.2489936999999998 10.2021708400000009
 41.4208115699999979 10.2489936999999998 10.2021708400000009
  0.0000000000000000 12.8112413600000004 10.2021708400000009
  1.4793147700000000 12.8112413600000004 10.2021708400000009
 41.4208115699999979 12.8112413600000004 10.2021708400000009
 39.9415008799999995 12.8112413600000004 10.2021708400000009
 36.9828692999999973 12.8112413600000004 10.2021708400000009
 35.5035535000000024 12.8112413600000004 10.2021708400000009
 31.0656112299999982 12.8112413600000004 10.2021708400000009
 28.1069796399999987 12.8112413600000004 10.2021708400000009
 26.6276658899999994 12.8112413600000004 10.2021708400000009
 23.6690373700000016 12.8112413600000004 10.2021708400000009
 22.1897215800000005 12.8112413600000004 10.2021708400000009
 19.2310920299999992 12.8112413600000004 10.2021708400000009
 17.7517772600000008 12.8112413600000004 10.2021708400000009
 14.7931477200000003 12.8112413600000004 10.2021708400000009
 13.3138329500000001 12.8112413600000004 10.2021708400000009
 10.3552034000000006 12.8112413600000004 10.2021708400000009
  8.8758886300000004 12.8112413600000004 10.2021708400000009
  5.9172590899999999 12.8112413600000004 10.2021708400000009
  4.4379443199999997 12.8112413600000004 10.2021708400000009
 19.2310920299999992  7.6867450200000000 10.2021708400000009
 22.1897215800000005  7.6867450200000000 10.2021708400000009
 24.8326759999999993 13.9325729999999997 14.2637599999999996
 24.8326759999999993 13.9325729999999997 11.7362400000000004
 16.3755150000000000 10.6716020000000000 13.0000000000000000
 16.8397460000000017  9.3466109999999993 13.0000000000000000
 15.9386559999999999  8.3039310000000004 13.0000000000000000
 18.7456950000000013 10.6746920000000003 13.0000000000000000
 18.2849250000000012  9.3484920000000002 13.0000000000000000
 20.1092660000000016 10.9686620000000001 13.0000000000000000
 21.0717449999999999  9.9342400000000008 13.0000000000000000
 20.5624350000000007  8.6070309999999992 13.0000000000000000
 19.1887250000000016  8.3081619999999994 13.0000000000000000
 15.0111849999999993 10.9620230000000003 13.0000000000000000
  6.0359650000000000 11.3756830000000004 13.0000000000000000
  7.3421349999999999 13.4283750000000008 13.0000000000000000
  8.4943150000000003 12.6529369999999997 13.0000000000000000
  8.4260649999999995 11.2436710000000009 13.0000000000000000
  7.2005450000000000 10.5995620000000006 13.0000000000000000
 10.6922149999999991 11.7654440000000005 13.0000000000000000
 29.0179669999999987 12.8154350000000008 13.0000000000000000
 10.2196160000000003  9.4047110000000007 13.0000000000000000
  9.7692449999999997 10.7073309999999999 13.0000000000000000
 11.6055050000000008  9.1686409999999992 13.0000000000000000
  6.0966950000000004 12.7841360000000002 13.0000000000000000
 12.5736260000000009 10.2094310000000004 13.0000000000000000
 14.0514050000000008  9.9250910000000001 13.0000000000000000
 27.9206049999999983 10.6264020000000006 13.0000000000000000
 17.5582050000000010 12.5113450000000004 11.7361000000000004
 10.2798649999999991 13.9136240000000004 14.2637499999999999
 10.2798649999999991 13.9136240000000004 11.7362500000000001
  9.9556559999999994 13.1088050000000003 13.0000000000000000
 25.1591149999999999 13.1286660000000008 13.0000000000000000
 17.5582050000000010 12.5113450000000004 14.2638999999999996
 17.5593450000000004 11.6439039999999991 13.0000000000000000
 30.2897379999999998 13.6132069999999992 13.0000000000000000
 14.5641649999999991  8.5992119999999996 13.0000000000000000
  4.8383459999999996 13.6029570000000000 13.0000000000000000
 22.5487749999999991 10.2224409999999999 13.0000000000000000
 23.0519239999999996 11.5427440000000008 13.0000000000000000
 24.4261359999999996 11.7833629999999996 13.0000000000000000
 25.3518450000000009 10.7276919999999993 13.0000000000000000
 24.9048650000000009  9.4238909999999994 13.0000000000000000
 26.6218870000000010 12.6767959999999995 13.0000000000000000
 26.6936570000000017 11.2674620000000001 13.0000000000000000
 27.7717549999999989 13.4563349999999993 13.0000000000000000
 29.0821879999999986 11.4063009999999991 13.0000000000000000
 23.5196040000000011  9.1841810000000006 13.0000000000000000
 12.0670450000000002 11.5284329999999997 13.0000000000000000
  9.7007460000000005 14.8433650000000004 11.6958300000000008
 11.3413850000000007 14.1837540000000004 11.6962700000000002
 30.0889360000000003 14.6895849999999992 13.0000099999999996
 21.2296049999999994  7.7504809999999997 13.0000000000000000
 23.2237049999999989  8.1395909999999994 13.0000000000000000
 25.5997160000000008  8.5906920000000007 13.0000000000000000
 27.9906770000000016  9.5441109999999991 13.0000000000000000
 30.0506169999999990 10.9095820000000003 13.0000000000000000
 27.7023159999999997 14.5397949999999998 13.0000000000000000
 22.3960949999999990 12.4051039999999997 13.0000000000000000
 20.3929839999999984 12.0142819999999997 13.0000000000000000
 14.7247350000000008 12.0068929999999998 13.0000000000000000
 12.7206150000000004 12.3924939999999992 13.0000000000000000
  7.4047250000000000 14.5124239999999993 13.0000000000000000
 17.5590060000000001 11.8996729999999999 15.1744699999999995
 16.6732750000000003 13.1568260000000006 14.3042700000000007
 18.4414559999999987 13.1591360000000002 14.3042700000000007
 25.4091570000000004 14.8639550000000007 11.6958199999999994
 25.0621259999999992 13.3657550000000001 10.8255499999999998
 10.0520350000000001 13.3461649999999992 10.8255499999999998
 18.8581539999999990  7.2748410000000003 13.0000000000000000
 16.2719249999999995  7.2714710000000000 13.0000000000000000
 23.7704050000000002 14.1997339999999994 11.6962399999999995
 11.9041449999999998  8.1248310000000004 13.0000000000000000
 13.8992349999999991  7.7409210000000002 13.0000000000000000
 30.8795660000000005 13.3815559999999998 13.8926400000000001
 23.7704050000000002 14.1997339999999994 14.3037600000000005
 25.4091570000000004 14.8639550000000007 14.3041800000000006
 30.8795549999999999 13.3815650000000002 12.1073500000000003
 25.0621259999999992 13.3657550000000001 15.1744500000000002
 17.5590060000000001 11.8996729999999999 10.8255300000000005
 18.4414559999999987 13.1591360000000002 11.6957299999999993
 16.6732750000000003 13.1568260000000006 11.6957299999999993
 11.3413850000000007 14.1837540000000004 14.3037299999999998
  9.7007460000000005 14.8433650000000004 14.3041699999999992
  3.9457860000000000 12.9688169999999996 13.0000000000000000
  4.8008160000000002 14.2356149999999992 12.1073799999999991
  4.8008249999999997 14.2356239999999996 13.8926099999999995
  5.0710249999999997 10.8726330000000004 13.0000000000000000
  7.1336560000000002  9.5170209999999997 13.0000000000000000
  9.5269560000000002  8.5697010000000002 13.0000000000000000
 10.0520350000000001 13.3461649999999992 15.1744500000000002
 15.5328050999999991 14.0923667199999993 10.2021708400000009
  3.6982869300000001 14.0923667199999993 10.2021708400000009
  6.6569164699999996 14.0923667199999993 10.2021708400000009
  8.1362312499999998 14.0923667199999993 10.2021708400000009
 11.0948607900000003 14.0923667199999993 10.2021708400000009
 12.5741755600000005 14.0923667199999993 10.2021708400000009
 17.0121188600000011 14.0923667199999993 10.2021708400000009
 34.7638981599999966 14.0923667199999993 10.2021708400000009
 21.4500641899999991 14.0923667199999993 10.2021708400000009
 24.4086927200000012 14.0923667199999993 10.2021708400000009
 25.8880085099999988 14.0923667199999993 10.2021708400000009
 28.8466380499999993 14.0923667199999993 10.2021708400000009
 30.3259528200000013 14.0923667199999993 10.2021708400000009
 33.2845823700000025 14.0923667199999993 10.2021708400000009
  2.2189721599999999 14.0923667199999993 10.2021708400000009
 19.9707504399999998 14.0923667199999993 10.2021708400000009
 44.3528028500000033 14.0923667199999993 10.2021708400000009
 24.4086927200000012 11.5301180399999996 10.2021708400000009
 39.2018404299999972 11.5301180399999996 10.2021708400000009
  2.2189721599999999 11.5301180399999996 10.2021708400000009
 37.7225246400000032 14.0923667199999993 10.2021708400000009
  3.6982869300000001 11.5301180399999996 10.2021708400000009
  6.6569164699999996 11.5301180399999996 10.2021708400000009
  8.1362312499999998 11.5301180399999996 10.2021708400000009
 11.0948607900000003 11.5301180399999996 10.2021708400000009
 12.5741755600000005 11.5301180399999996 10.2021708400000009
 15.5328050999999991 11.5301180399999996 10.2021708400000009
 17.0121188600000011 11.5301180399999996 10.2021708400000009
 19.9707504399999998 11.5301180399999996 10.2021708400000009
 21.4500641899999991 11.5301180399999996 10.2021708400000009
 25.8880085099999988 11.5301180399999996 10.2021708400000009
 28.8466380499999993 11.5301180399999996 10.2021708400000009
 30.3259528200000013 11.5301180399999996 10.2021708400000009
 33.2845823700000025 11.5301180399999996 10.2021708400000009
 34.7638981599999966 11.5301180399999996 10.2021708400000009
 37.7225246400000032 11.5301180399999996 10.2021708400000009
 42.1604720200000003 11.5301180399999996 10.2021708400000009
 39.2018404299999972 14.0923667199999993 10.2021708400000009
 37.7225246400000032 16.6546143899999990 10.2021708400000009
 44.3528028500000033 16.6546143899999990 10.2021708400000009
  3.6982869300000001 19.2168620499999996 10.2021708400000009
  6.6569164699999996 19.2168620499999996 10.2021708400000009
  8.1362312499999998 19.2168620499999996 10.2021708400000009
 11.0948607900000003 19.2168620499999996 10.2021708400000009
 12.5741755600000005 19.2168620499999996 10.2021708400000009
 15.5328050999999991 19.2168620499999996 10.2021708400000009
 17.0121188600000011 19.2168620499999996 10.2021708400000009
  2.2189721599999999 19.2168620499999996 10.2021708400000009
 19.9707504399999998 19.2168620499999996 10.2021708400000009
 24.4086927200000012 19.2168620499999996 10.2021708400000009
 25.8880085099999988 19.2168620499999996 10.2021708400000009
 28.8466380499999993 19.2168620499999996 10.2021708400000009
 30.3259528200000013 19.2168620499999996 10.2021708400000009
 33.2845823700000025 19.2168620499999996 10.2021708400000009
 34.7638981599999966 19.2168620499999996 10.2021708400000009
 44.3528028500000033 11.5301180399999996 10.2021708400000009
 21.4500641899999991 19.2168620499999996 10.2021708400000009
 44.3528028500000033 19.2168620499999996 10.2021708400000009
 42.1604720200000003 16.6546143899999990 10.2021708400000009
 39.2018404299999972 16.6546143899999990 10.2021708400000009
  2.2189721599999999 16.6546143899999990 10.2021708400000009
  3.6982869300000001 16.6546143899999990 10.2021708400000009
  6.6569164699999996 16.6546143899999990 10.2021708400000009
  8.1362312499999998 16.6546143899999990 10.2021708400000009
 11.0948607900000003 16.6546143899999990 10.2021708400000009
 12.5741755600000005 16.6546143899999990 10.2021708400000009
 15.5328050999999991 16.6546143899999990 10.2021708400000009
 17.0121188600000011 16.6546143899999990 10.2021708400000009
 19.9707504399999998 16.6546143899999990 10.2021708400000009
 21.4500641899999991 16.6546143899999990 10.2021708400000009
 24.4086927200000012 16.6546143899999990 10.2021708400000009
 25.8880085099999988 16.6546143899999990 10.2021708400000009
 28.8466380499999993 16.6546143899999990 10.2021708400000009
 30.3259528200000013 16.6546143899999990 10.2021708400000009
 33.2845823700000025 16.6546143899999990 10.2021708400000009
 34.7638981599999966 16.6546143899999990 10.2021708400000009
 37.7225246400000032 19.2168620499999996 10.2021708400000009
 42.1604720200000003 14.0923667199999993 10.2021708400000009
 42.1604720200000003  8.9678693599999999 10.2021708400000009
 33.2845823700000025  3.8433720000000000 10.2021708400000009
 37.7225246400000032  8.9678693599999999 10.2021708400000009
 42.1604720200000003  1.2811243400000001 10.2021708400000009
 44.3528028500000033  3.8433720000000000 10.2021708400000009
  2.2189721599999999  3.8433720000000000 10.2021708400000009
  3.6982869300000001  3.8433720000000000 10.2021708400000009
  6.6569164699999996  3.8433720000000000 10.2021708400000009
  8.1362312499999998  3.8433720000000000 10.2021708400000009
 11.0948607900000003  3.8433720000000000 10.2021708400000009
 39.2018404299999972  1.2811243400000001 10.2021708400000009
 12.5741755600000005  3.8433720000000000 10.2021708400000009
 17.0121188600000011  3.8433720000000000 10.2021708400000009
 19.9707504399999998  3.8433720000000000 10.2021708400000009
 21.4500641899999991  3.8433720000000000 10.2021708400000009
 24.4086927200000012  3.8433720000000000 10.2021708400000009
 25.8880085099999988  3.8433720000000000 10.2021708400000009
 28.8466380499999993  3.8433720000000000 10.2021708400000009
 30.3259528200000013  3.8433720000000000 10.2021708400000009
 15.5328050999999991  3.8433720000000000 10.2021708400000009
 34.7638981599999966  3.8433720000000000 10.2021708400000009
 37.7225246400000032  1.2811243400000001 10.2021708400000009
 33.2845823700000025  1.2811243400000001 10.2021708400000009
 39.2018404299999972 19.2168620499999996 10.2021708400000009
 44.3528028500000033  1.2811243400000001 10.2021708400000009
  2.2189721599999999  1.2811243400000001 10.2021708400000009
  3.6982869300000001  1.2811243400000001 10.2021708400000009
  6.6569164699999996  1.2811243400000001 10.2021708400000009
  8.1362312499999998  1.2811243400000001 10.2021708400000009
 11.0948607900000003  1.2811243400000001 10.2021708400000009
 34.7638981599999966  1.2811243400000001 10.2021708400000009
 12.5741755600000005  1.2811243400000001 10.2021708400000009
 17.0121188600000011  1.2811243400000001 10.2021708400000009
 19.9707504399999998  1.2811243400000001 10.2021708400000009
 21.4500641899999991  1.2811243400000001 10.2021708400000009
 24.4086927200000012  1.2811243400000001 10.2021708400000009
 25.8880085099999988  1.2811243400000001 10.2021708400000009
 28.8466380499999993  1.2811243400000001 10.2021708400000009
 30.3259528200000013  1.2811243400000001 10.2021708400000009
 15.5328050999999991  1.2811243400000001 10.2021708400000009
 37.7225246400000032  3.8433720000000000 10.2021708400000009
 39.2018404299999972  3.8433720000000000 10.2021708400000009
 42.1604720200000003  3.8433720000000000 10.2021708400000009
  2.2189721599999999  8.9678693599999999 10.2021708400000009
  3.6982869300000001  8.9678693599999999 10.2021708400000009
  6.6569164699999996  8.9678693599999999 10.2021708400000009
  8.1362312499999998  8.9678693599999999 10.2021708400000009
 11.0948607900000003  8.9678693599999999 10.2021708400000009
 12.5741755600000005  8.9678693599999999 10.2021708400000009
 15.5328050999999991  8.9678693599999999 10.2021708400000009
 44.3528028500000033  8.9678693599999999 10.2021708400000009
 17.0121188600000011  8.9678693599999999 10.2021708400000009
 21.4500641899999991  8.9678693599999999 10.2021708400000009
 24.4086927200000012  8.9678693599999999 10.2021708400000009
 25.8880085099999988  8.9678693599999999 10.2021708400000009
 28.8466380499999993  8.9678693599999999 10.2021708400000009
 30.3259528200000013  8.9678693599999999 10.2021708400000009
 33.2845823700000025  8.9678693599999999 10.2021708400000009
 34.7638981599999966  8.9678693599999999 10.2021708400000009
 19.9707504399999998  8.9678693599999999 10.2021708400000009
 42.1604720200000003  6.4056206800000002 10.2021708400000009
 39.2018404299999972  6.4056206800000002 10.2021708400000009
 37.7225246400000032  6.4056206800000002 10.2021708400000009
 44.3528028500000033  6.4056206800000002 10.2021708400000009
  2.2189721599999999  6.4056206800000002 10.2021708400000009
  3.6982869300000001  6.4056206800000002 10.2021708400000009
  6.6569164699999996  6.4056206800000002 10.2021708400000009
  8.1362312499999998  6.4056206800000002 10.2021708400000009
 11.0948607900000003  6.4056206800000002 10.2021708400000009
 12.5741755600000005  6.4056206800000002 10.2021708400000009
 15.5328050999999991  6.4056206800000002 10.2021708400000009
 17.0121188600000011  6.4056206800000002 10.2021708400000009
 19.9707504399999998  6.4056206800000002 10.2021708400000009
 21.4500641899999991  6.4056206800000002 10.2021708400000009
 24.4086927200000012  6.4056206800000002 10.2021708400000009
 25.8880085099999988  6.4056206800000002 10.2021708400000009
 28.8466380499999993  6.4056206800000002 10.2021708400000009
 30.3259528200000013  6.4056206800000002 10.2021708400000009
 33.2845823700000025  6.4056206800000002 10.2021708400000009
 34.7638981599999966  6.4056206800000002 10.2021708400000009
 39.2018404299999972  8.9678693599999999 10.2021708400000009
 42.1604720200000003 19.2168620499999996 10.2021708400000009
